NAME: usa115475
TYPE: TSP
COMMENT: 115,474 towns and cities in the United States
COMMENT: Created July 7, 2012, www.math.uwaterloo/tsp/data/usa/
DIMENSION: 115475
EDGE_WEIGHT_TYPE: EUC_2D
NODE_COORD_SECTION
1 33613.158800 86118.306100
2 33100.954000 85529.675300
3 31571.835200 85250.489300
4 32070.429900 85687.725700
5 33290.392600 87198.053000
6 33356.221700 86806.933300
7 32105.423800 86276.354700
8 32609.020600 86311.082800
9 33883.988500 86644.713500
10 32121.536600 87906.122700
11 32876.516500 87742.510500
12 34022.319400 86045.528500
13 31126.292500 85072.429400
14 31277.947300 86125.779600
15 34267.593700 86208.866900
16 33638.994100 86965.273400
17 33707.052700 87241.946200
18 32944.012000 85953.853200
19 34178.984000 85512.181800
20 33129.568100 88151.416600
21 31936.815600 87053.318000
22 30702.967500 88078.888600
23 32490.969000 87660.840700
24 32480.971400 85562.172700
25 34694.258700 88110.318200
26 33114.563000 86879.156200
27 33348.722000 86238.585900
28 33579.270400 86637.487000
29 34026.208200 86326.092300
30 33737.886000 87252.502400
31 34071.208100 85921.359000
32 32052.925600 87570.834200
33 31886.264400 86115.790600
34 31385.722800 86383.012300
35 31759.048100 85889.114900
36 34230.649600 85638.018900
37 31221.006600 87121.362200
38 34830.364300 87485.302300
39 31968.206400 88146.682200
40 31141.569300 85151.319600
41 31175.733100 85360.210800
42 34992.029200 86846.947100
43 33801.494500 87116.945900
44 33905.102700 86962.500600
45 33882.043300 86524.709500
46 32239.590700 85657.727400
47 31511.834500 85545.215600
48 34620.919800 86165.537400
49 34802.866100 86971.674100
50 31023.792100 87493.870800
51 34360.653700 87995.036600
52 32434.024900 86654.701900
53 33343.170500 85478.008500
54 31621.548000 86701.360600
55 31189.344400 85286.043700
56 33521.771700 86778.045000
57 31837.930000 86948.870800
58 30929.905200 88027.220900
59 31279.613900 86325.508500
60 33755.659900 87001.665000
61 34895.640800 87571.414500
62 34262.317900 86612.771200
63 34163.708200 86659.716900
64 31163.787200 85635.489300
65 34189.266000 86916.948300
66 31417.672200 85227.432400
67 34058.709300 85808.022900
68 33776.775000 87301.115300
69 31815.158500 85843.003400
70 32299.585200 86196.353700
71 33361.223900 85715.793100
72 31467.949400 85118.818900
73 33716.218100 87158.611500
74 30424.919400 87879.436600
75 31192.120800 85420.766800
76 34738.701000 87891.145700
77 31659.604200 88234.733800
78 31971.263100 87861.396800
79 31341.556800 86130.780800
80 31261.005100 85889.938200
81 34952.858400 85708.304100
82 30882.962800 87773.047400
83 33558.717300 86973.605700
84 30403.516000 88248.522000
85 34556.481800 86967.507900
86 33894.549600 87700.018800
87 31519.056500 85586.049300
88 31733.488800 87204.708300
89 33194.567200 88198.086000
90 33931.216200 88020.307500
91 31256.283100 86584.681200
92 32125.977300 86656.088500
93 30603.803300 87852.492300
94 33647.611000 87931.410900
95 32206.252400 87013.875900
96 34823.978600 86473.878800
97 32449.027500 88133.633900
98 30493.528600 88103.609900
99 34711.194500 85945.255600
100 31429.888200 87109.144000
101 31173.230800 85793.268100
102 32558.747000 87942.516100
103 33109.289400 87965.019000
104 33753.995500 87157.223200
105 32306.805400 86817.760800
106 34639.812200 86429.154300
107 31487.386000 87188.314100
108 33659.833200 87600.009800
109 31541.279100 85427.992200
110 31700.712300 86914.145700
111 34194.544400 86982.784000
112 34933.141900 86819.723900
113 31628.220700 85681.885500
114 32053.480600 86343.578700
115 31229.059100 86232.449300
116 32711.243900 85182.162400
117 34190.935700 88147.261200
118 31068.513500 85433.822200
119 34194.261800 85694.964800
120 34245.096200 86646.661400
121 31009.346800 85744.377200
122 33948.156700 86859.998900
123 34451.757400 86402.763800
124 34791.754900 87054.455100
125 34930.918100 87646.137700
126 31387.393700 85408.268100
127 31730.713500 88197.511100
128 31264.057900 86223.283000
129 34363.423200 85609.963400
130 32734.576700 85133.827700
131 33630.660700 86946.661800
132 33931.211500 86794.163600
133 34081.486300 86591.102700
134 33946.765400 86585.823500
135 34126.485600 86542.767800
136 31984.877000 85716.891700
137 33820.662300 87906.412800
138 32594.024500 88115.578000
139 34200.650300 86166.365500
140 33877.327400 87822.522500
141 33853.995000 87182.781800
142 33643.167500 87510.006100
143 32755.965400 88028.907200
144 31778.489900 88331.129000
145 31725.433400 86705.807800
146 33263.724600 86335.532300
147 33542.606800 87007.217300
148 32500.412400 86571.922300
149 32306.534200 85441.611900
150 32619.579700 88304.197000
151 33752.045400 86703.879900
152 31901.818400 86242.184700
153 32050.423600 86795.536300
154 32429.025000 86946.654600
155 31496.552600 87119.145800
156 32399.582800 86040.238700
157 32399.026900 86184.687900
158 33994.546500 86970.002700
159 32516.526100 88091.965900
160 31959.040300 86129.958900
161 34094.540600 85971.915800
162 34670.368300 87244.185400
163 34025.379700 87758.357400
164 31262.670800 86771.074900
165 31312.946100 86171.059600
166 34225.929500 86615.271100
167 31481.830600 86684.967700
168 33637.882500 86916.661200
169 34162.040400 86475.543100
170 34500.926700 86855.003300
171 33255.671900 87320.833600
172 34360.645300 85521.627600
173 34932.864800 86713.609400
174 31427.672100 85200.765200
175 34749.256800 86443.044000
176 32602.079300 87931.126700
177 34602.862600 85830.528400
178 31468.497900 86900.528200
179 33392.615500 87753.346200
180 31668.490900 86670.527800
181 34028.713300 87007.504300
182 33699.550000 87047.776000
183 34943.690400 85632.190000
184 32520.968900 85863.569200
185 32946.236100 85401.892900
186 33257.062300 87752.790200
187 33416.501100 87258.332300
188 31217.954500 88390.570000
189 33344.836400 87298.610900
190 34518.704600 86938.617900
191 33979.542600 85951.637000
192 31553.494900 87160.259200
193 34450.930300 88022.816400
194 34569.259600 87140.014800
195 32316.805600 87101.379300
196 33354.833000 86826.100400
197 34870.641800 87144.458300
198 33426.496700 86431.647300
199 31890.428300 87087.485000
200 32050.146700 86544.973900
201 32225.422700 87793.065800
202 31155.174800 88009.999700
203 31990.981300 87290.545600
204 33795.941100 87271.670900
205 32800.405900 85653.565900
206 31923.486800 87981.120700
207 32892.624800 86846.654600
208 33836.493300 87055.278900
209 32204.865200 86303.578400
210 31026.292000 87411.923700
211 32323.472600 86455.806200
212 31497.114100 85311.878700
213 34773.145600 86792.778100
214 33645.660400 86933.606100
215 34128.984500 86120.253100
216 32087.088900 87034.152600
217 31343.224000 87845.552200
218 34809.249800 85974.146200
219 31541.551900 88236.399900
220 32549.856900 85869.958500
221 31472.386900 87941.389000
222 34947.864600 86695.831100
223 34872.308500 87064.732900
224 32580.411700 87683.897400
225 31299.059900 87022.472100
226 31879.601200 85833.004100
227 32184.587500 87469.443000
228 32302.641600 86008.569400
229 31351.834300 86328.843200
230 34856.753000 87214.738900
231 34705.645800 87753.086900
232 33863.988700 86654.435700
233 33851.497200 87446.675900
234 31778.765800 86367.465500
235 34038.155300 86810.832300
236 34321.206600 86723.053300
237 34089.542700 86724.718900
238 34955.639200 87448.355800
239 31788.490200 88030.007800
240 31815.987000 86412.467600
241 34276.209400 86929.449700
242 32682.352100 86097.465900
243 34666.194600 85790.528200
244 33653.158000 86647.765900
245 34565.093000 87226.684900
246 31748.764900 87531.937800
247 31181.563400 85877.159200
248 31693.493000 88440.300600
249 32239.864700 88188.634100
250 33817.329000 87210.281400
251 31037.679400 88023.332400
252 31465.165300 88254.455700
253 32480.137600 85718.843100
254 33340.110800 86630.262500
255 34757.034200 87972.814300
256 32682.075000 85906.349400
257 31729.600600 86336.907800
258 32293.753600 85924.400600
259 31807.653200 87232.209400
260 31597.107400 85913.556600
261 33678.993700 86968.051900
262 30763.799100 88074.722200
263 31782.100300 87844.169500
264 32209.033000 88094.185700
265 30921.850500 88200.559800
266 32156.538300 85643.559200
267 31090.733800 88228.062200
268 31540.161100 87515.546400
269 34083.707800 86428.318600
270 34807.311600 86772.777400
271 33914.550800 87576.681700
272 32579.021900 86070.519800
273 30485.750800 87806.656900
274 31235.729300 85722.711800
275 31878.216200 85449.662700
276 34777.310500 87673.084600
277 32913.738700 87992.518000
278 31407.112500 85894.107800
279 31608.500200 85429.937400
280 34938.696400 87771.417700
281 33978.153300 86015.805200
282 33740.109900 87418.061100
283 33593.715800 86857.214600
284 33159.007800 87340.834000
285 33254.836600 86883.045500
286 32485.137900 88069.464900
287 33642.881400 85867.465900
288 33065.403700 88251.143100
289 30382.977100 88238.336300
290 31164.619300 85909.382100
291 31757.935300 88089.730800
292 32282.647600 85236.605600
293 34660.924400 87694.474600
294 33981.769700 87033.337300
295 31434.888100 86423.292500
296 32175.975400 86823.593200
297 33879.266000 85919.135600
298 32032.933800 85383.273200
299 33467.608500 87031.105800
300 32411.526600 86146.631300
301 33831.215200 87028.333800
302 33279.279600 86345.532700
303 33327.611300 86359.144600
304 32647.908500 86369.695700
305 31560.163200 88419.187200
306 34283.148800 86187.477700
307 31831.545300 85949.673000
308 33759.829100 87183.334900
309 33168.452200 85557.454300
310 33800.381000 86942.220100
311 32155.981100 85842.174700
312 33708.444200 87469.450400
313 32855.680600 86122.468200
314 32292.922000 85692.173300
315 32146.819800 85073.820600
316 31048.793300 85304.932600
317 34755.089500 86955.284700
318 30683.801300 88149.168500
319 30694.356600 88164.724600
320 33821.489400 86718.603800
321 34299.262400 86698.052300
322 34668.979400 87309.464900
323 33690.109700 87889.187700
324 33035.398900 85822.739100
325 34802.032000 87178.348900
326 32087.926500 87910.289000
327 32456.808100 85189.661100
328 32817.908300 88054.186800
329 32294.589900 85477.446100
330 33813.159400 86994.443800
331 33913.161800 88080.587100
332 30706.300700 88106.111700
333 33728.434800 86731.658200
334 34102.040300 86009.972400
335 32428.195200 88376.421100
336 34174.820800 86843.612400
337 31713.769500 88296.959400
338 33174.011300 88107.526100
339 32018.483700 86080.791000
340 31397.666400 86156.893700
341 32831.238000 85763.569200
342 31310.171900 85712.990800
343 33849.544400 86660.546900
344 31320.447100 86004.387000
345 31920.706400 86406.357400
346 33052.899200 85639.678300
347 32327.643200 85669.673200
348 30607.692600 88255.282800
349 32350.973200 87641.950300
350 34605.925400 86983.341700
351 30400.754200 88148.889300
352 34170.100500 87605.855900
353 32517.636100 87836.402000
354 34484.262800 87949.759500
355 34028.160800 88170.036800
356 34326.201800 85507.738100
357 32639.297700 86149.689400
358 33131.786900 85473.007200
359 31763.488400 87710.554400
360 31511.000800 85653.549700
361 33802.326900 87053.611400
362 30452.141700 88241.948000
363 31000.459500 87036.077400
364 33223.727500 87165.552100
365 33948.161400 87566.682400
366 33151.228600 86873.045000
367 33711.772900 87101.110500
368 33462.885800 86961.382000
369 31647.664800 85673.830200
370 32438.469600 86449.696100
371 31223.231300 85390.488900
372 34326.203000 86161.366700
373 34232.316300 86123.586800
374 34173.706500 86323.592600
375 32491.527400 88391.422100
376 32264.866800 85784.119400
377 31492.108400 86364.958200
378 33782.882100 87018.610300
379 32915.125200 85599.954100
380 34713.424100 86487.766900
381 31120.455000 85671.600200
382 31845.156900 85896.060700
383 34610.918300 85916.920000
384 31276.279700 86241.894900
385 34249.264300 86820.556900
386 32828.184900 85174.940700
387 31128.508400 86129.388000
388 31093.233900 87062.746900
389 31665.713200 86696.639400
390 34809.531900 87649.472500
391 34002.597900 85968.582000
392 34183.153600 86793.610900
393 33940.931400 86457.207800
394 31475.724500 85465.769800
395 33344.838800 87789.458600
396 32635.409300 86034.407900
397 31716.831900 85372.159500
398 32318.194000 86775.259800
399 31665.443900 85375.214700
400 34073.707500 86155.809300
401 30763.521300 88126.946000
402 31667.664600 85656.330400
403 31414.610800 86067.724300
404 30414.364600 87597.761500
405 33922.883500 87617.238900
406 34928.974300 86973.895900
407 34977.586000 86723.609900
408 34064.820600 85609.961900
409 32152.920700 87071.931900
410 32538.744800 86314.971200
411 33256.229300 87792.236200
412 33808.437300 87010.555200
413 31215.732500 85276.876900
414 32155.428400 85496.611600
415 32734.850900 86618.036400
416 32690.411400 88126.133900
417 32762.072100 86101.911200
418 31289.618200 88387.237300
419 31969.315000 87202.487500
420 33415.674300 88216.699200
421 31891.271700 85145.487600
422 33645.658700 85912.467100
423 31039.901300 85847.435000
424 32840.684800 87887.514500
425 34332.317800 86758.888000
426 31433.499400 86956.917600
427 33990.654300 85905.802600
428 32056.538600 87874.176500
429 34792.582700 85909.977500
430 31044.624400 85537.433400
431 34626.750900 85790.249700
432 32796.241300 85183.829700
433 31251.838400 86645.516000
434 31168.230100 88064.168500
435 34803.144500 86876.948100
436 31563.772600 87076.646200
437 31419.333400 87005.251900
438 33378.727800 87885.573500
439 34581.481400 86972.508000
440 34803.144700 86832.502000
441 34255.374100 86688.051900
442 32804.849000 86594.147300
443 31049.067800 86618.288100
444 32695.407500 86050.242400
445 34368.429500 86908.616000
446 34246.204300 85493.292700
447 32078.200400 86891.927200
448 32459.858500 87593.893800
449 33145.672500 86405.811200
450 32480.690900 86409.973200
451 33579.281200 88141.696400
452 30483.252300 88293.061600
453 33642.048400 86855.826400
454 34642.591300 87140.570200
455 34784.254400 87393.911400
456 32489.579500 86351.638500
457 31032.125900 85411.044200
458 31440.720800 86303.288300
459 32248.752000 87235.548300
460 33018.178800 85350.225100
461 34019.820000 86550.545300
462 34918.143100 86681.386100
463 31301.839100 85625.212800
464 33644.273500 87092.498200
465 34536.760200 87485.302800
466 34769.803200 85694.415200
467 32450.414100 86261.079900
468 32149.311100 87523.055700
469 33945.106700 87503.346700
470 31978.760300 86430.803200
471 34661.480100 86582.770100
472 32109.590000 86352.190400
473 33355.111700 87006.382300
474 34873.690100 85590.244300
475 34799.810000 87677.251000
476 32600.132500 86017.184900
477 30406.586800 87683.597400
478 34785.920900 87528.637000
479 31862.373500 86842.757500
480 32437.080500 86598.033700
481 33161.230300 85538.842600
482 32648.189300 87883.347500
483 34086.208800 85461.902100
484 32243.201400 85709.673000
485 31984.592900 86578.585600
486 32341.536000 85021.598300
487 32997.899900 85826.905600
488 33422.612300 85555.233300
489 32086.533600 86829.981600
490 31594.603800 87408.877600
491 33529.272000 86826.379600
492 31301.283900 88364.458800
493 30462.418900 88168.890000
494 34033.986800 86587.213400
495 33801.218700 87663.348300
496 33613.159800 86836.658900
497 34563.427200 87842.256800
498 31714.599600 87411.379100
499 32989.846200 85288.556400
500 34059.819100 86433.874400
501 31403.499300 86206.617800
502 32537.078900 85974.683100
503 31342.671900 88407.794600
504 33730.938200 85433.844200
505 31817.931500 86311.075000
506 34296.202800 85493.293000
507 31788.488100 87727.222100
508 34088.435600 88012.254600
509 33618.437100 86801.658200
510 32006.813200 86966.928000
511 33998.708400 86245.256000
512 31083.232600 86106.886400
513 31406.833900 86484.127300
514 33148.450000 86289.419200
515 32911.235100 86607.481700
516 34014.543600 86746.941400
517 33660.103300 86812.770200
518 31556.550300 86823.306300
519 31876.263300 86272.741100
520 32207.364600 87437.497900
521 34268.426000 85556.905700
522 32868.185700 88305.032100
523 31032.957200 85863.824200
524 30888.518200 88270.284600
525 31296.559100 87735.549000
526 34453.428000 86928.061700
527 31637.102800 86741.917500
528 31877.097500 88321.408900
529 33516.497600 87146.664000
530 32631.244500 87779.455900
531 34893.696900 87082.511300
532 34872.588600 86643.051200
533 32785.130500 85173.829300
534 33204.282800 86958.324800
535 33957.043000 85932.469800
536 32128.764600 85176.879300
537 31664.603200 86171.344400
538 33750.940800 87218.057600
539 32721.797500 85507.728300
540 34259.818900 86753.332200
541 32563.745800 85781.067500
542 33643.715500 85785.797100
543 32573.466600 86013.295600
544 34115.932800 86863.612400
545 31279.614900 85993.552600
546 31336.835500 87425.818600
547 33320.117800 87902.796200
548 33649.275000 87208.055900
549 31722.935200 86118.288200
550 31582.659700 87583.603900
551 31994.872000 86201.073300
552 33457.612500 85320.782700
553 31007.962100 85211.598500
554 34528.698500 86253.316300
555 34354.259700 86436.653300
556 33926.209500 86508.320500
557 33620.661100 86971.384400
558 31577.105300 87130.814500
559 34670.924500 86843.613600
560 31829.597200 86617.751700
561 31779.599700 87760.000600
562 33325.945600 86936.102700
563 34703.424400 86550.546800
564 33960.937000 87880.581700
565 30246.036100 87700.819300
566 34701.755800 86375.820100
567 34115.656800 87010.839100
568 34277.320000 87828.642300
569 33060.397800 85933.020200
570 31074.899400 86166.332500
571 31406.562000 85137.152600
572 34226.488000 87621.413300
573 31402.388600 87331.372300
574 34453.152800 88061.428500
575 32284.030400 88277.249200
576 32527.911400 87286.386100
577 34142.323500 87988.643800
578 31643.774500 85808.277000
579 32743.466000 88269.196000
580 34060.654500 86767.498000
581 34534.808800 85993.588100
582 34787.866500 86954.729000
583 32239.313900 85526.057800
584 31181.562800 88051.668100
585 32286.532200 85848.843300
586 33231.226700 85867.185900
587 31357.390100 86374.955900
588 31594.049200 87134.703800
589 33343.999500 86438.035700
590 32443.191300 87215.550200
591 34855.644100 86750.832300
592 32270.703400 85275.773300
593 34562.870700 87415.301100
594 33892.600300 86757.773000
595 33577.882500 86831.102700
596 32625.687000 86673.037300
597 34882.304200 85815.808100
598 32184.031500 86580.253300
599 34880.086500 86969.729300
600 32340.138400 87203.882000
601 31351.284000 85342.155900
602 31632.383000 88336.683300
603 31360.724300 86469.681100
604 33167.339800 87067.216300
605 34485.367500 86380.263400
606 31913.485000 86211.905900
607 31666.548200 86073.285200
608 34038.152800 86453.319400
609 34424.534000 86262.204000
610 33447.052200 86231.642100
611 30354.644400 88130.277700
612 34543.149500 87708.920200
613 32239.306900 86748.591700
614 31156.564800 85731.322500
615 34242.316700 86278.590900
616 33959.543700 86690.549700
617 32793.182800 86673.316000
618 32259.587900 87900.291400
619 34639.258000 87191.683400
620 33868.440300 87266.395000
621 32892.346100 86153.302800
622 31572.937900 87426.099900
623 32194.032500 86244.687600
624 34537.035800 86534.712200
625 31911.826700 85148.821100
626 32025.983900 87876.953800
627 34327.042500 87926.423300
628 31082.680300 85372.988600
629 31937.373200 88302.242800
630 34332.316500 86560.269000
631 34890.363000 87538.636200
632 33838.719500 87422.508400
633 33824.543600 86478.318500
634 34724.250000 85972.478700
635 32636.242100 86326.639000
636 32222.373300 85005.207700
637 33988.430900 86420.262400
638 32269.863200 86357.191600
639 34201.206100 85729.410200
640 34200.928300 86296.924800
641 34827.308800 87435.023200
642 34055.929900 86183.587800
643 33259.005300 87340.278600
644 33827.883900 87740.018600
645 32834.573200 85229.664700
646 34312.317000 86598.603800
647 33774.271700 87058.888600
648 34704.535500 86618.882600
649 34311.759000 86167.477700
650 34234.261500 86343.038000
651 32523.189500 86701.370700
652 33297.612300 86352.755300
653 31604.326700 86612.746900
654 31271.281000 86094.667200
655 30506.862300 88233.892500
656 31782.379300 88455.580500
657 34034.541300 86145.253400
658 30670.468400 88158.057600
659 30622.691700 87911.938400
660 32644.855700 87851.680100
661 34890.919100 87663.638500
662 32886.236400 85811.626500
663 34397.866600 85577.462700
664 33831.218500 87277.505300
665 32386.806700 87898.069900
666 33130.677200 87846.959400
667 32126.264800 85072.153600
668 34297.872600 86556.102200
669 31786.544200 86164.124500
670 31504.886200 88247.233400
671 32705.407400 86002.185400
672 30326.589400 87531.092300
673 34033.431400 86616.659000
674 32835.960700 85586.064300
675 33901.773700 87551.958200
676 31060.735100 87127.470500
677 34156.206300 85951.082300
678 32979.844100 86033.578000
679 33587.057400 87984.467500
680 32619.021200 85948.572100
681 34102.597200 85534.404200
682 32937.067200 86109.135300
683 33945.098800 85918.024900
684 31282.671800 85825.492400
685 33679.549900 87030.553200
686 34862.863700 87537.525300
687 34826.754300 87763.363500
688 34905.362700 87383.076800
689 31299.063000 85344.377800
690 31402.671100 85414.379400
691 34190.372700 85456.902600
692 31640.160300 88259.456900
693 30815.464300 88158.058300
694 32378.473500 85862.733900
695 33372.888500 86920.824900
696 32468.197700 85079.101600
697 34872.307900 87559.470100
698 34811.476300 87618.638600
699 34789.532300 87616.694400
700 32121.256900 87566.668100
701 32028.759300 88328.357700
702 34318.148000 86240.257300
703 34690.918900 86124.703800
704 32016.539900 87958.344400
705 33370.950900 87992.244200
706 34272.871600 86284.147000
707 30497.973300 88170.001300
708 34232.315900 85531.071500
709 31657.666500 85269.101300
710 34725.089600 87072.789500
711 34389.818000 86911.671900
712 31336.557700 87185.533100
713 34990.639100 87153.346900
714 34752.030000 86162.205100
715 32129.589000 86485.805800
716 31409.892600 85467.435800
717 33582.604400 86805.546600
718 33040.957800 88020.298300
719 34969.250100 87371.131600
720 32581.245500 85749.122500
721 33563.992900 86654.709400
722 34347.596600 87765.030800
723 32711.795700 86389.141200
724 30412.975900 87436.922800
725 31758.220000 85469.384400
726 33833.434600 86801.384100
727 32168.755400 88282.525100
728 31257.116200 87708.603500
729 34281.481500 85673.297900
730 32846.795300 85209.942000
731 33500.943300 87248.610000
732 32150.422900 88177.798500
733 34067.040900 86133.031000
734 33688.716100 86998.052800
735 32787.631200 88028.907500
736 32604.300800 85593.285400
737 31329.613500 86648.851500
738 32583.189700 87736.676900
739 33907.599200 86615.268500
740 31985.982100 86490.527500
741 33572.881500 86601.097100
742 32879.013800 86660.816200
743 31297.670700 87087.751700
744 34544.537600 86996.398000
745 34250.653900 86886.114700
746 34322.869100 85642.741800
747 31581.551000 88300.014300
748 31783.496300 85555.775100
749 31116.013600 85273.821400
750 33324.556900 86982.214800
751 31840.707700 87545.273700
752 31167.395600 86142.722600
753 33308.724700 87075.272400
754 33767.877700 85936.357500
755 33088.453300 87147.496000
756 31965.714500 85214.934300
757 31716.545500 86263.849200
758 31542.662300 86986.087700
759 33619.825300 86706.655900
760 34430.649200 86705.274800
761 31468.224300 85562.992900
762 32040.428000 86031.622700
763 34520.086800 86000.254800
764 34171.762300 85789.967200
765 31035.737200 85393.266300
766 30515.749900 87917.493100
767 31932.650800 86294.131500
768 30399.642400 87776.100100
769 31024.903200 87454.702900
770 32186.534100 86040.513500
771 34862.308900 87728.640000
772 32057.094000 87814.175100
773 33880.098400 86009.971100
774 31492.945600 85695.771800
775 30461.029300 87799.156600
776 34743.693800 85920.533100
777 34367.313000 86167.478600
778 32439.029600 85364.111100
779 34538.704700 87283.353300
780 30836.852700 88184.447900
781 33577.885900 87148.887100
782 33203.449200 86861.656000
783 31542.384000 86714.970000
784 31844.600300 85961.062300
785 33817.885800 87325.283700
786 31166.842200 87526.374700
787 32298.473700 87540.279700
788 34176.762300 86401.929000
789 32154.875000 85094.376800
790 33380.952000 88141.695500
791 31606.827400 87895.556500
792 34286.204000 86127.754200
793 31830.985800 87093.873700
794 34363.704500 86510.266900
795 33669.550300 87045.831000
796 31917.931500 86005.509000
797 31379.889400 87428.319400
798 33136.513600 88297.534100
799 34785.923700 86536.102300
800 34851.478200 86572.215400
801 31493.774200 87374.430800
802 31507.107000 87388.320300
803 33496.777100 85541.066600
804 31813.487100 86463.580500
805 32077.097700 85522.166700
806 30370.477000 87610.817200
807 32099.589700 87367.494400
808 33563.447800 88081.415900
809 31634.049600 88313.348700
810 32527.081800 88335.864400
811 33048.731500 86759.430700
812 32951.789700 86645.260700
813 33537.328400 86940.549100
814 32077.922400 86993.596100
815 32241.531200 88271.693000
816 34036.485900 86004.416300
817 32512.084800 85090.769000
818 31825.436900 85778.557400
819 31734.878200 86394.688000
820 32550.969800 88106.966500
821 32825.128200 85444.115800
822 34628.425000 86880.281900
823 33333.723000 86916.657900
824 34472.036500 86569.713600
825 33957.320100 86039.416800
826 32933.733800 86345.808300
827 33748.157600 86808.604800
828 33869.829500 88102.809300
829 34118.708000 85622.184600
830 34597.314500 87014.454100
831 31971.268200 85524.665400
832 32060.980300 86365.246100
833 34142.317900 86289.424400
834 33769.274400 87241.114000
835 32362.639300 86101.906800
836 32399.304900 86106.907500
837 32289.861600 87052.488900
838 31578.494000 86848.029800
839 33670.936900 86856.104700
840 34935.084700 87140.291200
841 32093.758000 88163.074500
842 34254.819300 86784.722200
843 32060.145800 86701.367300
844 34088.708700 86617.214800
845 34541.482700 87653.640800
846 34147.039700 86130.531200
847 31064.622800 88025.555000
848 32670.963600 86717.483200
849 34698.701600 86956.951500
850 32250.421400 87949.737100
851 32112.925700 87988.069100
852 31315.450600 85454.101300
853 34596.203200 87428.356900
854 33959.821100 86639.436700
855 31987.927200 88336.690600
856 30732.133300 88100.278400
857 34388.703300 86424.708500
858 32811.796100 85244.665000
859 32579.855400 85984.128300
860 32469.302700 86161.910300
861 31552.942600 85867.721100
862 33359.276900 86737.209500
863 33980.658700 87818.358000
864 34205.096500 86641.105300
865 32839.850700 87736.399200
866 31335.171600 85605.213300
867 33545.390600 87801.404700
868 32008.206800 87901.954100
869 34757.310600 87559.749000
870 34351.485600 87784.198000
871 34347.319100 87806.976200
872 34203.984200 86384.706200
873 32556.522100 86319.138200
874 34279.264100 86855.558200
875 34131.486400 86681.939700
876 33533.993900 86799.156800
877 30317.978400 87706.375400
878 32546.245700 87677.508200
879 33191.782200 86299.419700
880 33454.832400 87153.608100
881 34918.697500 86855.836300
882 34478.150200 86995.009100
883 32897.627200 87764.733300
884 33715.105800 87076.110100
885 34820.921500 86911.949400
886 34827.587300 87085.289600
887 33031.509900 86763.597400
888 34165.095500 85486.903200
889 34373.983800 86762.221500
890 33783.432400 86002.470300
891 34410.931000 88036.705100
892 33938.709100 86061.917300
893 31872.375400 88306.130200
894 32239.029200 86872.761600
895 34413.981700 86528.045400
896 34810.920600 87250.296200
897 31975.987800 85784.948700
898 30294.368100 87573.593500
899 31299.892500 87548.599700
900 33484.004600 87977.799500
901 30247.703100 87839.713100
902 31971.538400 86388.857300
903 32950.683900 88268.920600
904 31154.068700 85175.486700
905 30643.246800 87912.216400
906 32482.635100 86505.809200
907 31786.543600 86228.293600
908 33306.503500 87222.498000
909 33628.714200 86745.823600
910 32613.468900 88346.698600
911 31116.010700 87097.748400
912 34063.990700 87866.972300
913 33733.443400 87570.009600
914 31258.787200 85226.043000
915 33285.668700 86809.988500
916 32207.088800 88056.128700
917 30873.240400 88047.499300
918 33006.512100 85465.506400
919 30340.755800 87504.980500
920 33021.232700 85801.349500
921 31848.764500 86207.738200
922 34971.751300 86946.117100
923 34806.198400 87555.304000
924 34133.154400 86817.222300
925 34350.929900 87706.418000
926 31161.013400 85107.429900
927 33347.611500 86929.991600
928 32357.640800 87871.680000
929 30833.519800 87741.101800
930 34033.154900 85707.742400
931 32716.243300 85251.886900
932 34857.030500 87360.021000
933 31475.720000 86186.340400
934 32583.743600 86465.531100
935 34865.363500 87469.190500
936 31057.401200 88111.668900
937 33537.604500 86681.654100
938 34855.087300 86933.616900
939 32755.962600 85655.232400
940 32175.699300 86367.469100
941 34680.916800 85847.752300
942 31367.393100 85612.991600
943 34114.263900 85727.465400
944 34268.983000 86338.593500
945 31063.235100 87491.093700
946 31744.886700 85233.545300
947 31304.341600 85229.654300
948 31664.603900 86054.395600
949 34505.650300 87688.919800
950 34542.039800 88065.317800
951 34234.819300 86765.554800
952 32702.907400 86784.985400
953 34961.754500 86416.656900
954 31027.125200 87173.582500
955 32710.408100 85774.124100
956 32748.739500 86719.428200
957 34731.478200 87141.681200
958 34795.643500 87124.735700
959 34414.533900 86136.923100
960 33566.496600 87106.664000
961 33623.162100 87054.719400
962 32431.247200 87108.047500
963 33908.437800 87099.448100
964 33613.718400 87112.498100
965 32464.024500 86459.696600
966 31452.943200 87966.111700
967 33722.053600 87333.892600
968 34021.213200 87784.746900
969 32193.477500 88353.362300
970 33672.050500 87066.664800
971 34279.815700 86258.312700
972 31026.847400 87724.990800
973 34752.590700 86736.386900
974 34785.643300 87314.187000
975 31312.669400 87235.534100
976 34767.310300 87370.021900
977 34255.928100 86424.152500
978 34697.868600 87863.923100
979 31137.954300 87632.488800
980 34496.761700 87741.699200
981 33378.451000 88015.300800
982 31122.956100 85452.711300
983 34749.255900 87038.621400
984 31246.004800 88098.892800
985 33816.766600 86600.822200
986 31409.055100 87239.147300
987 31262.669600 86161.891800
988 31732.940400 85727.721600
989 32128.756700 88327.804200
990 31726.266900 87126.095500
991 34333.979500 85547.739200
992 34762.033100 87120.846800
993 34039.265400 86713.607000
994 31352.946800 86539.127300
995 34094.820000 86667.772400
996 32244.035500 85594.115000
997 34765.366000 87286.686400
998 31081.845100 86888.852200
999 30553.804800 87711.932400
1000 32214.032600 88127.242500
1001 34532.586500 85950.253300
1002 34168.151800 86536.656600
1003 33346.222900 86978.048300
1004 34089.262800 86112.752700
1005 34455.095600 87784.755100
1006 33781.494200 87084.722600
1007 34595.920900 86274.984000
1008 31597.664100 85834.665600
1009 32946.236000 85425.227000
1010 30260.758000 87622.205900
1011 33990.653400 86513.321400
1012 31449.331800 86339.400900
1013 34860.364300 87671.972300
1014 31941.260100 87136.930600
1015 33483.717100 86794.156100
1016 30618.525500 87693.599100
1017 34215.650100 85683.853400
1018 32687.075800 85669.121200
1019 34072.041400 86502.210300
1020 33553.437300 86560.262600
1021 34507.872600 87728.643200
1022 34364.260400 86556.657700
1023 34769.812600 86480.822700
1024 31955.154700 85820.782600
1025 32323.472000 86616.644200
1026 30503.529100 88254.171100
1027 34548.982300 87588.916800
1028 33698.713500 85839.687900
1029 32350.416000 87262.216800
1030 32596.802800 85238.552700
1031 34938.973600 87114.734600
1032 32457.082600 87931.126700
1033 34242.871700 85768.578000
1034 31705.436300 86036.340300
1035 31905.989600 85807.726000
1036 31298.225400 86389.121700
1037 34252.871800 86192.755100
1038 31902.929300 86315.798400
1039 32089.039700 85762.727500
1040 32287.639300 86985.820600
1041 30853.241000 88056.110600
1042 33547.048600 86579.707400
1043 31662.656900 87437.490200
1044 31661.555400 85206.599700
1045 31470.998000 86393.292200
1046 33324.281600 87321.667000
1047 34700.367400 87476.413800
1048 32183.759100 85704.672000
1049 32056.258500 86303.021900
1050 31129.897900 86004.106300
1051 32395.136900 87008.322500
1052 32732.628500 86112.189000
1053 30515.195400 87473.869200
1054 30654.080500 88303.063200
1055 31524.052600 86037.725300
1056 31630.994400 88391.408500
1057 33593.161700 87003.329100
1058 33405.387100 86871.935100
1059 33506.505000 88094.193800
1060 32840.406700 85183.274400
1061 33110.396000 86584.149000
1062 33521.495000 86905.270200
1063 33733.157500 85798.020500
1064 34719.813200 86662.495300
1065 31781.272100 85744.111600
1066 32117.092800 85942.176500
1067 33551.218900 87101.385900
1068 32394.861500 85916.902000
1069 31570.169000 85101.318600
1070 34260.934400 88127.261700
1071 32418.193200 87613.338600
1072 31282.120200 85197.153600
1073 33229.281700 86824.988500
1074 30545.471500 87751.655900
1075 34224.263700 86734.442400
1076 32104.593800 85870.785800
1077 34957.588000 86518.603800
1078 31669.880100 87064.981800
1079 31557.667100 85545.494100
1080 34151.762000 86149.698300
1081 34146.762700 85829.968200
1082 33455.663200 86138.028200
1083 31108.233500 85594.378000
1084 34185.094600 86050.529400
1085 32540.139300 85098.547300
1086 30861.018700 88208.615500
1087 31235.175900 85325.488500
1088 34119.540600 86395.539800
1089 31525.723800 85436.047700
1090 32241.530900 86296.356200
1091 34473.149100 86798.612000
1092 34001.764200 86045.250600
1093 34211.210400 87635.024500
1094 34742.311400 87703.641100
1095 31029.347700 85469.933300
1096 34350.092000 86309.704500
1097 31820.155200 88329.185600
1098 31144.897400 85985.494900
1099 34915.918700 87041.398500
1100 32132.923000 86269.965800
1101 31107.955600 87035.246300
1102 31947.096000 88137.236900
1103 34194.544100 86956.394200
1104 34656.757700 87616.695100
1105 33735.941700 87270.558300
1106 33079.844300 85253.000200
1107 30742.689000 87793.325200
1108 31674.879500 86825.253900
1109 31001.015900 85403.821900
1110 34990.642600 86571.383500
1111 30715.745300 87784.713700
1112 33448.718000 86479.982000
1113 34868.693300 85839.419900
1114 30993.792600 87858.049900
1115 32034.592400 86294.132600
1116 31388.222900 86418.013500
1117 33054.844600 85330.780200
1118 33808.441700 87587.512300
1119 33938.988300 86679.993400
1120 34796.470400 85741.916900
1121 30745.466300 88076.666700
1122 34204.540000 86494.155200
1123 33301.224300 86983.325800
1124 34084.268000 87699.190200
1125 31964.872900 87640.001700
1126 34319.260900 86513.878200
1127 33251.225100 86202.473100
1128 33515.662800 87014.994800
1129 31181.843000 85468.267000
1130 31451.278300 85871.330200
1131 34151.484400 85918.026000
1132 34422.317500 86931.395000
1133 30724.078900 88370.011400
1134 31888.769100 85704.112400
1135 31639.329100 85878.834400
1136 31712.658800 88056.395900
1137 34097.875400 85674.408300
1138 31623.220100 85768.553300
1139 31804.885000 85163.821100
1140 34662.312900 87287.242100
1141 34624.813700 87344.188100
1142 33929.827000 87678.630100
1143 31715.165200 85424.382900
1144 31776.544700 86128.567400
1145 32266.531200 87625.282600
1146 32185.147000 85818.007900
1147 32204.587500 86283.855600
1148 34839.530900 87355.576600
1149 31362.112800 88248.621500
1150 32065.978700 87143.043300
1151 32712.351000 86318.306000
1152 31618.771300 87876.667300
1153 32955.679200 85760.514600
1154 32203.200400 88020.294000
1155 34898.143200 86733.609800
1156 30718.800300 88090.833500
1157 31912.929700 88309.464800
1158 34744.809200 86251.651200
1159 33970.936400 87773.634300
1160 31406.561200 85256.599700
1161 34750.917600 86077.759100
1162 30421.864000 87836.379800
1163 33244.837100 86955.547100
1164 32424.028600 85691.619500
1165 33662.606500 87086.942800
1166 32339.304800 86879.707200
1167 31520.447700 85191.320800
1168 32698.741500 85847.181300
1169 32988.181000 87915.016000
1170 30565.472600 88343.897800
1171 32982.622200 86680.817300
1172 34202.873900 86566.658000
1173 34401.758900 86449.153800
1174 33002.900900 85522.730300
1175 34473.703500 86621.937900
1176 32144.316000 85714.949500
1177 33005.398600 86359.142600
1178 34984.805000 87506.690400
1179 33387.611300 87072.217200
1180 34467.316700 86940.562300
1181 33470.661700 86513.316300
1182 33166.227900 86761.931200
1183 31029.902300 87861.105700
1184 34994.528200 86988.896200
1185 32265.982100 85164.658300
1186 32549.855300 87270.552600
1187 32035.704800 87659.448000
1188 34241.764900 86866.113900
1189 31828.485700 87321.656300
1190 34482.039400 87653.918500
1191 32397.637200 86528.309000
1192 32674.852300 86450.809100
1193 31436.277200 88028.335800
1194 31540.717000 87791.108000
1195 31209.617600 87218.309200
1196 32586.799100 86209.135300
1197 34014.541700 86059.140000
1198 33814.268200 86809.439400
1199 32311.811100 85553.281500
1200 32408.192600 86467.751900
1201 34918.142500 88064.203000
1202 34328.146500 85573.851000
1203 31260.453400 85273.265800
1204 31150.729900 86116.332500
1205 33088.177300 85339.391700
1206 34111.209900 86799.443700
1207 33490.384200 86865.824400
1208 33528.717300 86925.826300
1209 33649.273100 87068.608900
1210 33396.776900 86971.381800
1211 34238.710300 86959.172700
1212 33713.993500 86987.497300
1213 33824.821900 85909.968300
1214 34652.590900 87249.741200
1215 34793.420800 87378.077600
1216 32648.464100 86599.424100
1217 31768.497000 85152.431800
1218 34240.372200 86244.422900
1219 34888.141000 87327.242100
1220 34121.489000 87732.247600
1221 34653.146400 87528.637300
1222 34171.761900 86242.756100
1223 34130.652000 85506.625900
1224 31316.001900 86328.564800
1225 34286.764900 87875.865800
1226 31608.217100 85998.003600
1227 33905.376000 86110.251900
1228 33703.442300 87301.947200
1229 31556.280200 85179.653900
1230 34803.143000 87578.915700
1231 31159.900300 85344.377300
1232 31027.679700 86610.509700
1233 33321.500700 86196.917800
1234 32529.858000 85772.733800
1235 33374.281200 85399.673000
1236 34627.865400 86274.428600
1237 34080.929900 86393.595100
1238 31543.774100 88277.790700
1239 32486.249100 88296.418300
1240 34954.806600 87670.026700
1241 31087.122200 85774.378200
1242 31021.290800 85892.713600
1243 31006.013600 85914.380500
1244 31267.396800 85376.044500
1245 31241.841000 85483.267300
1246 31202.399200 85321.321700
1247 31209.898700 85351.321900
1248 31132.678700 85375.488700
1249 31212.675900 85407.433400
1250 31217.676700 85300.766000
1251 31273.229800 85396.322500
1252 31261.840600 85466.600800
1253 31219.342200 85428.822500
1254 31241.843100 85239.654300
1255 31222.397200 85474.933900
1256 31137.956100 85398.822100
1257 33795.943400 88206.978100
1258 33793.718600 87978.636900
1259 33854.273000 87974.193500
1260 33572.893000 88202.810200
1261 33736.777900 88202.254900
1262 33678.445600 88172.253600
1263 34755.088300 87458.913400
1264 34762.589900 88005.592800
1265 34755.643900 87485.303000
1266 34685.646500 87803.921700
1267 34729.811500 87634.195200
1268 34677.868400 87658.640400
1269 34582.036900 87547.248900
1270 34680.646200 87697.252400
1271 34645.091800 87791.699400
1272 34626.480900 87744.476100
1273 34700.089900 87612.528100
1274 31400.166900 86878.859300
1275 31483.497200 86833.304700
1276 31365.446200 86945.527000
1277 31338.225000 86939.692800
1278 31362.946500 86987.194600
1279 31429.332400 86845.248100
1280 31439.054400 86880.527000
1281 31363.223200 86788.855900
1282 31496.552600 87096.367300
1283 31454.331400 86788.858400
1284 32301.536100 85197.993300
1285 32388.199700 85172.159800
1286 31308.503900 86483.291300
1287 31283.502100 86194.948900
1288 31394.056200 86588.851800
1289 31429.336000 85674.381600
1290 31700.712400 87723.886900
1291 31934.874500 87754.726700
1292 31555.718000 87938.890000
1293 31628.770200 87785.276100
1294 31089.067400 87522.206400
1295 30998.793100 87456.924700
1296 31134.898500 87289.421400
1297 31011.292600 87511.093400
1298 31131.287700 87366.646300
1299 31009.903800 87473.036600
1300 32396.529300 85741.620300
1301 32321.807600 88285.861000
1302 30890.740400 87753.046900
1303 30627.969500 87793.046500
1304 31164.064100 87786.382700
1305 30285.479400 87743.043000
1306 30791.298800 87770.824800
1307 34148.709600 86808.333200
1308 34065.376400 86738.886000
1309 31546.550500 86781.916200
1310 31822.930400 86835.534700
1311 33879.267200 86768.884100
1312 33777.322600 86629.155900
1313 33817.322200 86627.767600
1314 34009.264200 86447.208000
1315 33854.266800 86683.881100
1316 33997.319700 86408.039800
1317 34052.874700 86363.038300
1318 33808.988700 86568.598900
1319 33842.047100 86924.998300
1320 34207.595800 86536.656800
1321 33891.767700 86820.274600
1322 33883.433100 86683.325900
1323 32069.038900 85940.231400
1324 32060.150900 85868.007400
1325 31957.099700 85755.225500
1326 32104.595000 85724.949100
1327 32081.540200 85738.838000
1328 31513.775500 85975.223200
1329 31487.942300 86074.670200
1330 31482.943700 85919.387700
1331 33297.343200 88221.698800
1332 33294.564100 88075.581100
1333 33261.787100 88095.026300
1334 33012.627000 88285.310700
1335 33490.951000 88275.868600
1336 33475.950500 88170.030600
1337 33430.671300 87873.906600
1338 33276.507700 87937.241800
1339 33347.342300 88230.588400
1340 33127.901300 88120.026200
1341 33308.452600 88059.747000
1342 32894.013100 86031.077000
1343 31917.649600 86899.981500
1344 31679.880100 86506.635300
1345 33399.002800 85373.561400
1346 33324.004700 85395.228100
1347 33456.778700 85445.786000
1348 33339.004700 85312.725800
1349 33257.061900 85416.617200
1350 34553.704300 87556.693600
1351 34402.873900 87665.306500
1352 34555.649400 87763.088300
1353 34316.763600 87730.584900
1354 32174.586900 86671.922500
1355 32153.755000 86479.139100
1356 31769.599000 87000.260500
1357 32819.015400 86631.926100
1358 34638.980000 87470.858000
1359 34523.982900 87236.685400
1360 34556.482100 87276.686500
1361 34571.759500 87370.299900
1362 34648.980000 87210.573000
1363 34672.312600 87329.743200
1364 34525.371700 87205.850800
1365 34216.760800 85526.349100
1366 34245.926900 85643.019100
1367 34152.873900 85774.966800
1368 34047.321000 85459.679700
1369 34170.929000 85677.742000
1370 34136.207700 85672.741700
1371 34182.039800 85718.021000
1372 34136.207700 85705.520500
1373 34138.985200 85590.794900
1374 34488.419000 85521.350500
1375 34255.648600 85469.403200
1376 34262.593000 85590.240000
1377 34166.762300 85578.294700
1378 34163.151400 85631.907300
1379 34187.595100 85622.184900
1380 34205.650000 85489.125800
1381 34212.038700 85576.350400
1382 32524.578700 86204.134600
1383 32509.301300 86349.971900
1384 32575.688400 86185.245500
1385 32497.912700 86331.360200
1386 32532.911700 86384.973000
1387 32680.685400 86156.912200
1388 32520.690300 86065.241300
1389 32550.690000 85916.904100
1390 32445.414100 86341.082100
1391 32495.413000 86188.300400
1392 32444.025700 86141.076000
1393 32722.351100 86076.910000
1394 32521.523700 85998.017000
1395 32564.022000 86233.302500
1396 32534.856100 86233.302200
1397 32428.469900 86408.861600
1398 32518.189900 86374.694800
1399 32662.074500 86247.470400
1400 32957.067500 85878.017900
1401 32716.240900 85851.903800
1402 32736.240600 85788.013500
1403 32970.955900 85897.185200
1404 32940.124000 85750.514200
1405 32896.791100 85973.019900
1406 32919.568100 85971.075600
1407 32926.512700 85909.129600
1408 32866.792300 85864.683300
1409 32900.124600 85882.461900
1410 32886.236100 85869.683600
1411 32844.015100 85859.682900
1412 32873.736400 85878.572600
1413 32704.019500 85758.012500
1414 32945.123300 85915.241000
1415 32762.073700 85619.120400
1416 32745.129100 85807.458500
1417 32979.844400 85929.964000
1418 32551.523600 85848.569100
1419 32961.233700 85979.409600
1420 32826.237500 85941.351700
1421 32512.635900 87793.900700
1422 32341.807900 87780.566200
1423 33526.780800 87900.574800
1424 33545.668100 87730.291000
1425 33630.666400 87805.572800
1426 33734.275300 87908.355600
1427 33539.557100 87686.400300
1428 33691.776100 87836.130300
1429 33696.498500 87902.799400
1430 33847.883600 87823.632900
1431 33878.161100 87891.413600
1432 34815.643000 87154.181300
1433 34834.810600 86831.946400
1434 34753.701500 86795.278200
1435 34780.922900 86832.779700
1436 34827.865000 87136.680500
1437 34854.531100 87101.401200
1438 34729.257400 86806.945300
1439 34889.809500 86817.223800
1440 34628.425000 86915.838900
1441 34633.424900 86951.395900
1442 34278.986200 87721.417300
1443 34168.710500 87800.861700
1444 34254.264400 87789.474300
1445 32543.192600 85370.778800
1446 32573.747000 85409.113500
1447 32565.969300 85434.947500
1448 32647.356100 85357.167700
1449 32610.690600 85356.889700
1450 32633.744700 85484.949400
1451 32620.134600 85375.223700
1452 32650.411300 85410.780500
1453 32610.412500 85424.391800
1454 32571.524200 85537.172700
1455 32664.577400 85427.170000
1456 32677.355000 85390.502300
1457 32619.578800 85412.724900
1458 32586.246000 85523.561300
1459 32541.803000 85500.782700
1460 32639.022600 85429.392100
1461 32597.634900 85454.115000
1462 32632.078300 85449.948300
1463 32667.633300 85342.167300
1464 32564.580100 85488.282500
1465 32608.467500 85529.117200
1466 33138.451500 86979.158600
1467 33033.177200 87199.997200
1468 31929.871300 87023.595200
1469 32140.977700 87474.998400
1470 31975.980800 87035.540200
1471 31971.536500 86990.817100
1472 31993.758700 87206.932100
1473 31911.261400 87479.995500
1474 31241.840500 85630.489700
1475 31090.459700 85154.097500
1476 34909.807800 87024.175700
1477 32502.085900 85024.099800
1478 32435.699600 84997.153800
1479 32445.143500 85024.377000
1480 33475.116500 88070.859200
1481 33303.729500 87949.464600
1482 31545.996400 88061.671500
1483 31566.829300 88323.626600
1484 31260.731700 88424.182600
1485 31472.387300 88153.340700
1486 31489.054000 88368.072800
1487 32660.688200 87750.844000
1488 32641.521900 87745.843900
1489 32559.855800 87548.615100
1490 34863.968300 85613.023000
1491 34802.025100 85679.970200
1492 34813.973900 86115.260300
1493 34925.914800 85760.528500
1494 34570.086900 86171.092600
1495 34370.374500 86970.007300
1496 34449.260400 86758.888100
1497 34596.758900 86965.563300
1498 31771.823600 86008.284900
1499 31707.102700 86057.730000
1500 31817.099800 86064.676600
1501 31745.434600 86103.843800
1502 31855.710500 86026.342300
1503 31885.989200 85884.394300
1504 31667.937400 86027.172500
1505 31859.044700 85946.339900
1506 31980.149700 88354.191300
1507 31891.819000 88255.572400
1508 31796.822300 88237.513500
1509 32043.203500 88210.574900
1510 31699.325400 88265.290900
1511 31995.149300 88381.137500
1512 33114.009400 85500.785700
1513 33457.890100 85381.895400
1514 33386.225000 85458.841500
1515 33392.058000 85489.675700
1516 33465.944700 85517.732500
1517 33177.064200 85332.169700
1518 33135.120000 85502.730300
1519 33301.505200 85425.506600
1520 33373.725400 85430.507300
1521 33454.000400 85549.955500
1522 33184.285600 85486.619000
1523 33122.898300 85443.006200
1524 33234.007400 85341.336900
1525 33280.672600 85407.450400
1526 33471.500900 85348.283500
1527 33369.557600 85621.623800
1528 33353.448200 85429.395900
1529 33274.283500 85462.729800
1530 33135.675900 85418.561000
1531 33327.060000 85428.006900
1532 33362.888500 86861.934600
1533 33717.601000 86591.654100
1534 33280.114300 87052.216100
1535 33602.881000 86616.653400
1536 33662.602100 86595.264700
1537 33408.443300 86996.938000
1538 33565.385800 87128.053300
1539 34018.708200 86268.034600
1540 34039.542000 85926.914500
1541 34049.541100 86234.700200
1542 34038.985800 86294.980100
1543 33975.100000 85790.244300
1544 34066.763200 86258.312000
1545 34055.652200 86102.196800
1546 33968.987900 85884.690900
1547 34172.039200 85977.194100
1548 33863.987600 85984.692600
1549 33665.380700 85885.244400
1550 33936.211100 85813.300100
1551 33856.766200 85908.301800
1552 33765.379400 85770.797800
1553 33750.934200 85847.188500
1554 33652.326700 85751.351900
1555 33870.933200 85868.856600
1556 33690.380200 85864.410600
1557 33794.544800 85862.467000
1558 33629.271600 85776.352300
1559 33846.489500 85809.688300
1560 33537.049600 86188.030200
1561 34804.254800 86998.619600
1562 34786.200900 86774.999700
1563 34798.144200 86943.895200
1564 34820.921100 86990.563700
1565 34780.088800 86980.841100
1566 34827.864700 87582.526600
1567 34837.030800 87517.525200
1568 34832.586700 87320.297900
1569 34873.697900 87797.808100
1570 34977.861300 87253.628600
1571 34948.141100 87868.919800
1572 34978.138700 87418.354900
1573 34891.752600 87685.027700
1574 34855.642100 87646.138600
1575 34927.029400 87669.471400
1576 33643.166300 87400.003800
1577 33637.609300 87281.945900
1578 33716.776900 87420.838500
1579 33632.609000 87248.611900
1580 33663.995800 87119.721200
1581 33590.665300 87280.556400
1582 32353.471900 86415.527600
1583 32312.361900 86398.582200
1584 32248.197800 86218.020400
1585 32370.972600 86054.960900
1586 32309.584400 86344.691700
1587 32320.973800 86125.240400
1588 32347.917700 86074.127900
1589 32339.028500 86216.077100
1590 32367.360500 86399.416100
1591 32358.472500 86173.575900
1592 32240.419600 86346.635500
1593 32401.526600 86244.412100
1594 32378.471800 86194.410100
1595 32355.416400 86381.915500
1596 32294.028900 86468.306300
1597 32397.359900 86298.024800
1598 32437.081000 86279.135900
1599 32075.702500 86258.853900
1600 32172.921700 86316.078600
1601 32343.195400 86129.963100
1602 32227.919800 86405.526100
1603 32247.086800 86182.741400
1604 32337.361200 86420.805300
1605 32395.971300 86208.855400
1606 32364.582900 86332.469800
1607 32346.805600 86369.692900
1608 32314.584100 86370.525900
1609 32112.645400 86402.747600
1610 31196.007000 85924.938400
1611 30733.522100 88177.780900
1612 30648.802700 88277.784100
1613 30711.856100 88188.058800
1614 30951.295200 88339.454800
1615 30668.246200 88107.778100
1616 30894.628700 88123.335000
1617 30721.855800 88139.446200
1618 30766.299200 88281.951500
1619 30582.137300 88101.388300
1620 30501.586100 88388.899400
1621 30798.798100 88121.390400
1622 30636.302800 88253.616100
1623 30983.517400 88406.958300
1624 30793.243200 88301.397100
1625 30711.856100 88247.227300
1626 30727.966700 88227.782400
1627 30995.459800 88237.505600
1628 30774.076600 88165.558400
1629 30700.189700 88200.836900
1630 30743.799600 88261.117000
1631 30791.853900 88197.226100
1632 30857.129800 88146.669100
1633 30433.530900 88176.390200
1634 31027.958400 88193.337800
1635 31043.513100 88157.225800
1636 30773.243300 88086.944800
1637 30757.132500 88201.392800
1638 30597.414700 88108.333100
1639 30386.310300 88216.669100
1640 30755.743800 88159.724800
1641 30716.856100 88274.450900
1642 30471.030900 88356.953100
1643 30729.355600 88195.836900
1644 30779.354200 88229.171500
1645 30662.690800 88173.891400
1646 30780.743100 88147.224500
1647 31046.846400 88181.671100
1648 31067.956900 88234.450900
1649 30829.630500 88120.834800
1650 31018.236000 88080.556300
1651 30596.859400 88175.002100
1652 30978.515300 88129.168800
1653 30841.852400 88070.833300
1654 33611.214100 86581.930400
1655 33813.990900 86849.995900
1656 33525.665300 87237.499100
1657 33613.993700 86890.271300
1658 33484.552900 87078.606800
1659 33617.603500 86767.768500
1660 33588.994500 86947.216600
1661 33384.832100 86850.823400
1662 33402.889400 87156.941200
1663 33568.161400 86937.771700
1664 33452.889600 87299.999900
1665 33349.556400 87024.993800
1666 32320.694700 87316.106800
1667 32329.305000 86943.319900
1668 32214.031000 87353.051100
1669 32113.199300 86992.763200
1670 32249.307800 87394.163800
1671 32202.641400 86997.208700
1672 32410.136500 86878.319100
1673 32404.303400 87051.101400
1674 33491.217600 86132.750400
1675 33580.104100 86186.919200
1676 33422.886200 86276.920800
1677 33568.437700 86174.974300
1678 33440.941000 86311.366400
1679 33235.669900 86319.420500
1680 33599.548000 86157.473900
1681 33565.104500 86199.141800
1682 33213.170500 86295.808600
1683 33277.612900 86431.090500
1684 33473.440100 86281.365900
1685 33139.839200 86384.421700
1686 33596.770400 86101.083300
1687 33689.545700 86193.864400
1688 33581.215200 86208.864300
1689 33425.941800 86182.473700
1690 33414.553100 86262.476000
1691 33492.050900 86159.973500
1692 33392.887100 86314.421600
1693 33384.831900 86240.808400
1694 33276.779800 86229.140700
1695 33522.883400 86149.417700
1696 33239.558600 86283.308400
1697 33623.714000 86024.970000
1698 33513.994900 86057.748200
1699 33570.104400 86118.861500
1700 33266.780100 86241.640900
1701 33400.109400 86140.527900
1702 33463.163000 86156.917600
1703 33452.885200 86286.643600
1704 34837.031600 87711.140100
1705 34829.810100 87870.032700
1706 34851.475300 87235.295400
1707 34836.476200 87732.807200
1708 34909.808000 87743.639700
1709 34848.142900 87794.475000
1710 32446.802500 87382.776500
1711 32269.862400 87181.936100
1712 34757.310800 87618.917000
1713 34750.366700 87688.918500
1714 33207.337700 86759.987000
1715 33317.612000 86810.822000
1716 33452.884900 86385.535200
1717 33280.669000 86829.988900
1718 33077.897400 86816.654500
1719 33184.283100 86824.432800
1720 33379.276200 86747.209900
1721 33407.052900 86711.098100
1722 33227.892600 86682.763100
1723 33311.223300 86796.377300
1724 33329.278300 86821.377900
1725 33175.950300 86961.658300
1726 33209.004500 86820.821700
1727 33218.170900 86797.765700
1728 33232.059400 86853.878100
1729 34667.313100 86488.877800
1730 34806.478800 86617.216400
1731 34871.200000 86590.271700
1732 34758.979700 86555.269400
1733 34777.312600 86640.272600
1734 34666.757800 86536.101600
1735 34730.646600 86711.108200
1736 34933.419900 86765.833200
1737 34729.257700 86532.490600
1738 34778.423400 86758.332300
1739 34758.979600 86669.440100
1740 34723.979900 86751.665300
1741 34598.702500 86579.714200
1742 34687.035500 86562.491600
1743 34818.423300 86505.546200
1744 34815.089900 86576.937300
1745 34707.313200 86530.546100
1746 34942.588300 86495.825200
1747 31344.617600 85323.544600
1748 32611.242900 86591.090300
1749 32665.130400 86538.589200
1750 32447.080500 86429.973400
1751 32702.351700 86493.866000
1752 32657.075000 86454.975800
1753 32463.469000 86439.418300
1754 32350.138600 86455.251000
1755 32350.139300 86197.743300
1756 32361.805200 86362.748400
1757 32357.639000 86232.466800
1758 32313.472900 86433.583300
1759 32366.804900 86439.972900
1760 31989.873400 86087.179800
1761 32350.139000 86295.801900
1762 33166.230900 87631.119500
1763 33192.896200 87429.169700
1764 33275.117200 87601.119000
1765 33286.225600 87118.884400
1766 33235.673300 87493.893600
1767 33163.452500 87427.502900
1768 33197.896800 87610.841300
1769 33313.727600 87561.673300
1770 33520.113200 87613.897300
1771 33379.282200 87600.007700
1772 33222.340000 87445.003500
1773 33152.064600 87615.007900
1774 33368.726800 87590.563000
1775 33371.226700 87562.784300
1776 33270.394800 87493.338000
1777 33293.450100 87543.895000
1778 33400.115200 87567.228800
1779 33316.783200 87601.396700
1780 33260.950700 87589.452000
1781 33404.281800 87611.119200
1782 33130.675900 87481.670900
1783 33350.116200 87747.234800
1784 33441.781200 87569.450900
1785 33072.900300 87698.620800
1786 33260.392800 87079.994500
1787 33127.620500 87518.616200
1788 33247.894900 87446.114600
1789 33250.395100 87508.338500
1790 34748.693700 85899.977000
1791 34721.472100 85932.477600
1792 34662.028800 85972.755700
1793 34635.363000 86024.979000
1794 34597.030300 86057.479200
1795 34610.641200 86028.867600
1796 34599.252300 86004.978100
1797 34586.752500 86013.033700
1798 34567.864500 86126.924900
1799 34555.086600 86074.423500
1800 34530.086900 86091.368200
1801 34546.753500 86106.924200
1802 34763.977400 87173.626700
1803 34771.477200 87194.738600
1804 34820.642700 87231.962000
1805 34490.923400 86417.208700
1806 34437.033500 86216.647600
1807 34368.702100 86252.202800
1808 34360.092100 86348.594800
1809 34322.592600 86302.203900
1810 34314.815500 86376.928700
1811 34476.200000 86309.150500
1812 34445.923000 86317.205900
1813 34413.979600 86338.039500
1814 34482.032200 86220.815100
1815 34491.198700 86196.092400
1816 34508.976200 86179.425500
1817 34129.262400 86240.256000
1818 34019.543000 85869.968600
1819 33982.041900 86266.090000
1820 34105.651600 86258.312100
1821 34104.262600 86099.974700
1822 34176.206200 86198.588400
1823 34091.762800 85993.027500
1824 34008.430900 85988.860300
1825 34149.817400 86094.974700
1826 34032.041400 86091.640900
1827 34050.652600 85973.026800
1828 34177.872500 86030.251100
1829 34098.707200 86186.087900
1830 33995.930700 86323.592200
1831 34002.042800 85918.580800
1832 33927.876400 85947.192100
1833 34001.486300 86127.197200
1834 34113.984700 86156.920500
1835 33974.819800 86172.198300
1836 33988.986400 86108.307800
1837 33773.711900 85840.244100
1838 33796.767900 85787.465200
1839 33712.600500 86088.861400
1840 33890.376500 85963.025600
1841 33870.934400 85751.909200
1842 33750.932700 86044.138000
1843 33311.222900 86587.483500
1844 34107.040700 86365.260800
1845 31115.454500 86486.064200
1846 32064.040500 85770.505200
1847 31318.225400 87120.808600
1848 32441.802800 87495.279200
1849 32454.302700 87520.835600
1850 32388.193300 87511.112600
1851 32532.078200 87440.278600
1852 31416.281100 85527.436400
1853 31419.054700 86167.727800
1854 31321.280600 88188.619000
1855 34398.978000 85672.187600
1856 34221.760800 86081.919100
1857 34695.637600 85669.413500
1858 34658.138600 85693.580500
1859 34397.589700 86016.364500
1860 34263.982100 85860.525100
1861 34296.759000 85885.248300
1862 34287.592500 85994.140000
1863 34427.032900 85728.578300
1864 34444.254700 85719.689300
1865 34446.755000 85904.139600
1866 34726.191800 85616.634400
1867 34351.479800 86000.807800
1868 34462.310200 85952.752500
1869 34438.144400 86052.477000
1870 34424.255600 85873.305000
1871 34581.750700 85626.632700
1872 34635.084000 85767.193600
1873 34714.248400 85680.803100
1874 34268.148800 86076.363800
1875 34479.809500 85856.638500
1876 34365.923700 85815.802600
1877 34208.705300 86045.529400
1878 34317.869600 85762.189500
1879 34573.418500 85775.248300
1880 34579.528200 85590.520400
1881 34459.254200 85711.633700
1882 34416.478100 85952.474000
1883 34847.857500 85623.301200
1884 34292.592500 85787.745600
1885 34602.306300 85699.135300
1886 34315.925100 86029.419000
1887 34312.869900 86077.475700
1888 34638.416800 85714.691900
1889 34483.142700 85820.526200
1890 34440.088400 85833.859500
1891 34286.481600 85749.411100
1892 34435.365700 85635.242400
1893 34494.253600 85847.749400
1894 34560.084200 85580.797600
1895 34234.538100 86016.917600
1896 34655.360000 85600.521800
1897 34341.480200 86091.365300
1898 34587.862400 85726.080300
1899 34697.581000 85580.243900
1900 34562.307700 85812.471500
1901 34649.527300 85663.023800
1902 34218.427400 85949.415900
1903 34729.255900 87604.194600
1904 32848.737400 87164.996100
1905 33007.344700 87282.499100
1906 33205.395100 85691.625100
1907 33257.337700 85749.404800
1908 34545.926100 86851.391900
1909 34333.429200 86800.834000
1910 31600.165500 85718.829800
1911 34317.319500 86915.282800
1912 34656.758000 86879.170700
1913 33344.834800 87086.661800
1914 34191.210900 87621.968000
1915 33039.009900 86908.879000
1916 32474.579500 86891.653600
1917 34833.415800 85872.754300
1918 31305.169900 87701.103700
1919 32942.623300 86680.539300
1920 34093.991000 87063.062400
1921 31421.558600 85574.658900
1922 31427.943300 87341.373100
1923 34523.149100 86970.285900
1924 34782.865600 87346.132300
1925 32545.411200 86894.709700
1926 31433.498500 87401.375000
1927 34947.306500 87194.182100
1928 31102.399800 85696.877800
1929 34143.984800 86378.872500
1930 32432.086100 85246.051900
1931 32395.693100 86395.527500
1932 32241.814600 85416.332700
1933 31220.173400 87461.929100
1934 31826.541200 87381.935500
1935 32706.799800 87995.294800
1936 32416.250100 88240.304400
1937 32828.459700 86786.652700
1938 34455.373200 87753.921100
1939 31509.052100 87894.443500
1940 32959.845100 86746.652200
1941 34088.987900 86796.665700
1942 32584.021400 86897.487800
1943 34718.145500 87001.675600
1944 31869.880700 85718.834600
1945 31109.068400 85370.488600
1946 33773.435200 86813.883200
1947 31216.004500 86171.057900
1948 32740.128700 85969.129300
1949 33334.000100 86298.865200
1950 34534.258400 86604.159600
1951 34334.819000 86903.337900
1952 34390.923200 85978.307700
1953 34834.254900 87980.868700
1954 31965.705500 86284.409300
1955 34273.426200 86033.307300
1956 32140.424100 88080.017100
1957 32162.366600 86268.577000
1958 33548.159700 86544.428800
1959 34179.817700 85761.355500
1960 34700.923000 87528.915100
1961 31299.616200 85777.991400
1962 31825.708200 86701.364900
1963 34765.090000 88039.204800
1964 32306.253500 87798.066500
1965 31926.821800 85864.116600
1966 34590.648300 87676.974500
1967 32584.302500 88187.247500
1968 34811.753700 87410.578300
1969 34935.641000 86951.673000
1970 33200.393600 86781.654100
1971 34068.711700 86916.113400
1972 34860.920200 87756.696200
1973 33806.217100 87143.891000
1974 32423.748200 86226.356300
1975 34903.420900 86714.164800
1976 32135.702100 87668.060600
1977 31191.284500 88007.499900
1978 34722.313500 88103.373400
1979 31139.343900 85519.100500
1980 32328.472300 86511.085700
1981 32448.469000 86921.098500
1982 34767.034500 88068.372100
1983 32953.456500 86829.987700
1984 33791.767300 86686.102300
1985 34018.432200 85834.967800
1986 34769.811900 86430.266200
1987 34116.485800 85459.680000
1988 33139.285200 87089.161300
1989 31266.281800 88031.390300
1990 34397.589600 85894.694200
1991 31617.661500 88398.631000
1992 31930.429700 88458.917800
1993 32346.806600 86094.406300
1994 30662.690700 88088.333000
1995 31319.061200 85493.823900
1996 32725.406600 86483.865900
1997 33054.566400 85484.673800
1998 32382.916300 86174.131800
1999 30440.474900 88105.832300
2000 31538.217500 87278.039900
2001 31527.939900 87324.707700
2002 34786.479000 86713.886300
2003 31903.483300 86881.925400
2004 30565.748700 87901.659900
2005 33053.457400 87994.741600
2006 32437.916800 87996.128500
2007 34389.258300 86369.151300
2008 33734.549500 85386.065400
2009 31902.099200 85940.784800
2010 31385.723900 85929.386100
2011 33648.991900 86768.602300
2012 33562.334600 87657.510600
2013 32593.188400 87532.781500
2014 31421.837900 85337.712000
2015 32560.690800 85672.453800
2016 32750.685900 85436.337300
2017 32990.955400 86758.874900
2018 31920.982800 87082.762900
2019 34581.203600 87523.637100
2020 32573.743800 86600.812600
2021 32437.638100 87773.622000
2022 31471.552900 87342.207200
2023 33948.153700 86472.764000
2024 31958.763900 86005.509500
2025 32306.250500 87245.549200
2026 33432.886100 86859.435000
2027 31459.057600 85640.493200
2028 33738.712000 86646.100300
2029 32561.803300 85344.667000
2030 33761.770100 86935.552500
2031 33700.666400 87454.727800
2032 34393.145300 85873.026900
2033 32279.586400 88120.021000
2034 31007.681500 87627.209000
2035 31514.050900 87493.323400
2036 31947.656100 85705.224300
2037 31280.169200 86157.169700
2038 31584.604800 87259.429000
2039 33232.617400 87423.614000
2040 32265.972900 86788.592900
2041 30896.295900 87635.542700
2042 33227.345000 88266.422500
2043 31311.561200 85552.990600
2044 31872.651000 86991.094200
2045 34962.307800 86827.502100
2046 32067.926800 86059.679500
2047 32188.207100 85163.268500
2048 33490.940500 86970.271400
2049 31930.151300 88214.460900
2050 34321.202800 85820.802300
2051 32573.466000 86551.922300
2052 33590.663100 87108.608800
2053 33540.105500 86868.880800
2054 34843.420300 86243.040800
2055 31757.382800 85817.446400
2056 34272.597100 86812.223200
2057 33639.552000 87154.443600
2058 32022.650500 88031.402100
2059 32589.298900 87199.995600
2060 33042.067900 87768.900300
2061 32050.425800 86221.352400
2062 33992.319700 86149.142300
2063 33522.888500 85344.672800
2064 33431.219400 86201.641000
2065 32114.032800 87054.986600
2066 33252.337700 87128.606700
2067 34880.643400 88076.704000
2068 33151.231300 85372.170800
2069 32330.138800 86559.142600
2070 33984.547600 87708.632600
2071 33159.842500 85287.446000
2072 32889.568100 86219.693600
2073 31568.221300 85768.552100
2074 34825.642500 87294.741700
2075 34699.805000 85768.583600
2076 33679.831600 87781.406000
2077 34562.315100 86991.120000
2078 32189.039500 85317.995800
2079 31730.433900 86309.684600
2080 34342.038800 86610.271000
2081 34836.755500 86412.210900
2082 34873.419300 87623.360100
2083 31629.605400 88020.004700
2084 31112.953900 86046.051800
2085 30388.810300 88258.337100
2086 34836.476900 86885.281800
2087 34362.314900 86423.597300
2088 32297.369700 85168.825500
2089 34578.974700 85986.644000
2090 33830.378000 86668.046900
2091 31909.596700 86162.459500
2092 34765.088700 87698.640700
2093 31875.987200 86079.678000
2094 34462.587800 85879.694500
2095 32584.303700 85183.550700
2096 33824.827200 87086.112500
2097 33007.899900 87005.548100
2098 34323.702700 85967.195300
2099 30464.918700 88150.556100
2100 31690.993100 85960.504300
2101 32911.237700 87706.120600
2102 32590.965600 86432.196900
2103 33695.664600 87744.460400
2104 33219.559900 86889.712200
2105 31589.604100 87693.051000
2106 33901.773800 88134.477600
2107 34900.364000 87800.863300
2108 34917.588600 86505.825100
2109 33353.446000 87127.773800
2110 32711.800000 88238.916800
2111 31382.389700 88008.334700
2112 32536.244500 87179.716900
2113 32097.370700 87867.510300
2114 33121.506500 86443.312100
2115 31909.597800 87876.673500
2116 32535.968300 85893.292300
2117 34731.478700 86970.563200
2118 32217.363900 87196.658000
2119 32154.312500 86111.349100
2120 34919.808300 86892.782100
2121 32676.243400 85486.338500
2122 31913.485900 87735.836700
2123 32915.679600 86715.817800
2124 34863.141500 87337.798200
2125 33818.156300 86742.771200
2126 34093.434100 86948.614700
2127 34135.096400 85571.905500
2128 31642.658500 87239.985100
2129 34756.477200 87529.192900
2130 34456.760100 86738.053900
2131 31305.170200 87502.209600
2132 34501.203500 86685.829500
2133 32568.466200 86948.878100
2134 32749.850500 86511.366800
2135 33757.054100 88108.918500
2136 31529.886600 85938.278000
2137 34376.487300 88058.649700
2138 33384.553700 86411.924100
2139 32612.354000 86902.210300
2140 31263.785000 88344.735400
2141 33408.999300 87050.550300
2142 31441.832600 87993.612400
2143 33606.770900 86822.491800
2144 32362.084500 88278.083300
2145 32456.525500 86050.795400
2146 32937.628200 88203.084100
2147 32735.408000 85579.119100
2148 32105.703800 87800.842000
2149 33752.045700 85811.354300
2150 33917.044100 85855.245400
2151 33309.004700 85484.675000
2152 34139.264500 86738.886500
2153 32717.628700 86184.135600
2154 31650.713600 87704.996700
2155 34092.876500 86774.442800
2156 32327.082700 86711.924700
2157 32365.418200 88090.298300
2158 31208.230400 85622.434000
2159 33951.770000 87034.170000
2160 33078.730800 86881.656200
2161 33491.502600 87498.614900
2162 33928.993000 87817.245700
2163 31833.209900 86148.569000
2164 34595.092100 87472.802500
2165 34474.259600 86694.718800
2166 34530.927500 87724.198500
2167 34908.697800 87990.034300
2168 32245.976400 88379.475600
2169 31845.154700 86069.399300
2170 31925.149400 86840.258200
2171 33876.768600 86881.942400
2172 33886.768100 86848.330700
2173 33915.379200 86864.720500
2174 33277.894800 87548.617400
2175 33412.886000 86695.542300
2176 33435.663000 86673.875200
2177 33413.441500 86672.764000
2178 33298.446400 86919.435400
2179 33289.001800 86788.599100
2180 33280.391700 86991.659200
2181 33347.333600 86896.935300
2182 33336.222800 86879.712600
2183 33277.891600 86945.269300
2184 33352.055400 86844.434100
2185 34274.819700 87700.583300
2186 32582.359400 85164.105600
2187 31243.228000 85884.937800
2188 33404.006700 88084.748500
2189 31244.614200 86198.281700
2190 34725.365700 86303.041000
2191 33965.659400 87914.749400
2192 34672.308600 86188.316000
2193 34973.690900 85671.080400
2194 32572.360000 85138.549000
2195 34660.644000 86328.874500
2196 31407.111100 86612.186100
2197 34672.306900 86034.146300
2198 34157.877900 87667.246400
2199 31705.156400 87215.819100
2200 30642.691200 88083.332600
2201 32029.590500 87066.374600
2202 30362.977500 88114.721600
2203 32232.086000 87409.997400
2204 34928.417900 87266.407000
2205 32057.092200 87588.612600
2206 31781.274800 85302.158300
2207 34474.818000 87866.424100
2208 32354.304700 87148.603000
2209 31663.776900 85506.606300
2210 30315.478500 87729.431600
2211 33179.839200 86990.547800
2212 32077.923400 87281.380000
2213 31582.383200 86257.178600
2214 31802.097600 86866.090800
2215 33891.774200 87526.123600
2216 34220.094200 85607.740200
2217 32609.020700 86368.028800
2218 32681.241300 86017.741200
2219 32947.903300 87666.952800
2220 30870.463100 87795.825700
2221 34303.981000 85926.082800
2222 32608.187400 86395.807200
2223 31216.841600 88317.234000
2224 32065.702300 86406.358600
2225 33728.717000 87090.277200
2226 32032.093600 86159.127600
2227 34145.928500 85999.139100
2228 32729.299800 88314.475500
2229 32496.802500 87716.120400
2230 33915.104300 87741.687600
2231 30476.308400 88342.230300
2232 33225.116200 87126.384400
2233 31708.768100 87777.221800
2234 31498.781800 85150.764100
2235 34932.310200 86571.938400
2236 32062.650600 85894.952500
2237 31953.483500 86313.854600
2238 33998.154600 85866.357400
2239 34174.263400 86616.382000
2240 31850.708400 86406.078800
2241 33854.274500 87567.512900
2242 34178.150800 85545.516100
2243 32014.875700 85746.059400
2244 32229.865100 88168.355400
2245 32033.481600 87565.278300
2246 31114.621800 87388.869000
2247 30618.247600 87753.045400
2248 34120.374800 85769.411000
2249 32437.358000 87238.883900
2250 30694.356600 88043.054100
2251 32745.407100 87415.835300
2252 33324.004900 85359.116000
2253 34537.033900 86394.430700
2254 34910.088300 86427.767700
2255 33037.343500 85774.126600
2256 31010.181500 87564.706600
2257 31493.219400 86931.640700
2258 34588.146100 86458.876800
2259 31320.168800 86743.853500
2260 32470.976100 85000.765300
2261 32284.308400 86103.016900
2262 32035.987500 85588.834200
2263 31979.594300 87588.056100
2264 32165.420200 86911.928500
2265 33014.292300 88083.634400
2266 30474.084500 87919.159800
2267 34439.820200 88140.874700
2268 32685.130400 85943.017100
2269 32789.019500 85144.939500
2270 34027.877000 85495.236200
2271 32287.917900 87371.385700
2272 32024.592200 86451.915300
2273 32632.909100 86129.688700
2274 32751.797300 87729.454700
2275 30545.193600 87902.770800
2276 32004.590900 87007.206500
2277 32426.529600 85445.224500
2278 32584.021400 86344.694500
2279 30698.523100 88138.890500
2280 32079.321300 85336.883600
2281 34392.040500 87726.419300
2282 33210.671500 86930.268700
2283 32055.427000 87709.172200
2284 34417.867000 85986.919500
2285 34522.316400 87628.640200
2286 31555.717500 86303.568600
2287 32106.262900 85579.112800
2288 34681.201200 87406.134200
2289 32273.472700 86746.925200
2290 32400.416300 85998.570600
2291 34568.973200 85614.965400
2292 32071.538100 87830.842300
2293 32808.185000 87762.511100
2294 31824.322000 88132.233600
2295 32543.744800 86211.912700
2296 31853.209700 88188.624800
2297 31405.724900 88429.741000
2298 31294.614800 86872.189800
2299 31386.555700 86769.967200
2300 31778.765000 86815.533800
2301 34579.537100 87266.130600
2302 32398.478500 85009.931600
2303 33815.386100 87356.950800
2304 33666.776000 87302.224500
2305 32509.023300 86987.490000
2306 34581.759300 87045.844300
2307 34759.246800 85614.134700
2308 34779.246800 85626.357200
2309 31219.617100 88148.616600
2310 32925.957000 85938.852600
2311 31339.615000 85809.381900
2312 31368.780700 85840.216700
2313 31324.892500 85882.161400
2314 31379.335800 85861.884100
2315 31305.171200 85840.215500
2316 31347.669900 85859.105700
2317 31363.226300 85713.825100
2318 31339.615200 85787.992500
2319 31341.004300 85765.214100
2320 31060.457300 87059.968300
2321 34049.265400 85548.571100
2322 33360.943300 86481.648100
2323 33650.662700 85407.453800
2324 32739.573100 86832.764700
2325 34077.597900 85487.736200
2326 33158.728700 86996.659100
2327 32768.462000 85738.568000
2328 31635.721100 85611.051500
2329 30777.409900 88023.054000
2330 34851.476100 86973.896200
2331 34343.147200 86215.812700
2332 32510.413600 87764.455300
2333 34427.870400 86541.934700
2334 32786.797700 87975.849900
2335 34877.861100 85959.423900
2336 31464.052400 87753.883800
2337 32026.541100 85850.506600
2338 33146.508000 85621.622800
2339 33670.944700 87531.674000
2340 34893.140600 87473.357000
2341 34398.704600 86610.270900
2342 31712.381200 88413.910400
2343 32557.079200 87767.511100
2344 33995.381500 87098.616900
2345 33681.768100 86530.540900
2346 31569.333400 85595.216900
2347 34959.805700 87429.744200
2348 33371.498700 86402.479400
2349 31867.929000 87420.826200
2350 33020.954800 86919.434700
2351 34285.372200 86459.431700
2352 32667.077200 85452.448500
2353 31595.715300 87329.708800
2354 33731.489500 86563.597800
2355 33128.732100 85290.779300
2356 31191.008700 85593.822800
2357 34858.974800 86169.428300
2358 34017.877600 85733.854200
2359 31651.826900 86004.115800
2360 34836.756300 86542.214200
2361 34560.361800 85553.019000
2362 33419.275400 86166.917600
2363 31551.834400 85452.437200
2364 31454.608500 87634.714500
2365 31542.666800 85674.383700
2366 32705.685900 85815.791700
2367 31221.283800 87304.423400
2368 33195.397300 85293.835300
2369 34514.816100 87018.065700
2370 34932.027400 85913.033800
2371 31464.609700 88032.225000
2372 32009.046300 85311.048500
2373 34111.763100 85889.691700
2374 34649.526400 85565.242700
2375 31757.663600 85581.053100
2376 31999.319900 85853.561800
2377 32697.077200 85267.442900
2378 33365.674400 88119.750000
2379 33212.065900 88100.026100
2380 31051.012100 86582.731800
2381 33339.006800 87960.576300
2382 33616.496600 85474.677200
2383 33124.563200 87057.216000
2384 31895.437400 85523.553500
2385 31843.763000 87356.101800
2386 34545.086200 85933.586300
2387 32956.232900 86260.250800
2388 32259.306700 87008.320800
2389 33343.722200 86149.416600
2390 34429.531900 85508.572000
2391 33275.671100 85669.402500
2392 32627.909200 86849.986700
2393 34688.701600 87001.397900
2394 33193.450600 87176.385600
2395 33282.617400 85306.336200
2396 31614.050000 88166.398100
2397 34646.479800 87497.525400
2398 32613.189700 87829.179500
2399 34665.648300 88113.929500
2400 34745.083500 86021.369100
2401 32868.182300 85526.618500
2402 31210.729100 87738.326200
2403 30742.133200 87924.162200
2404 32309.306200 87383.608500
2405 33209.005600 87143.329200
2406 33370.945100 87076.106100
2407 34237.038400 85720.243400
2408 33073.452400 86478.035000
2409 34545.648200 86781.389000
2410 31570.995500 86067.171800
2411 33163.450900 85827.462200
2412 34007.044400 85439.956700
2413 33273.446500 86301.364800
2414 34108.708200 85580.239000
2415 32544.577800 86828.318900
2416 33781.768300 85761.353300
2417 31526.829500 87032.199500
2418 31201.007400 87603.044300
2419 31875.992400 85642.444400
2420 31467.942900 86481.906500
2421 33022.900300 85561.342600
2422 31573.494500 86976.921600
2423 34602.307100 85856.362500
2424 32817.350800 85404.670000
2425 31510.163400 86573.299000
2426 32994.843500 86084.968500
2427 33104.846300 88141.971500
2428 34160.373700 86430.263500
2429 34195.928400 85777.744800
2430 32548.746400 85756.622400
2431 30738.800100 87867.493900
2432 34596.473700 85784.415600
2433 34000.935700 87745.300900
2434 33182.619200 85441.617600
2435 33591.221600 87340.557600
2436 32097.927600 85848.285200
2437 31803.493400 85760.501200
2438 34867.589000 86455.545600
2439 31010.458300 88024.165500
2440 34503.143800 86303.872900
2441 31793.209200 87248.598500
2442 31540.718200 86178.563700
2443 34430.087700 85551.351100
2444 32328.194500 86536.919700
2445 32580.411200 85938.849300
2446 34567.869100 86540.823700
2447 34579.810300 86301.928900
2448 32561.244900 85962.738700
2449 32946.513100 85638.288700
2450 32385.417600 85884.401100
2451 34870.637000 85745.528100
2452 34493.143200 86244.149200
2453 32163.479000 86083.014800
2454 34876.475700 86934.172500
2455 32267.085200 87491.388900
2456 31632.381900 86189.122000
2457 30927.406000 87719.156900
2458 30857.129900 87866.105300
2459 32192.922300 86117.182900
2460 34078.429600 86064.973700
2461 34908.139000 85960.535300
2462 34977.029700 86820.001900
2463 34365.097000 86996.397200
2464 34599.533000 86340.263200
2465 32612.633200 87669.452500
2466 34383.982800 86638.605400
2467 34857.588100 86795.278500
2468 32286.251300 87440.832000
2469 33241.782600 87158.051900
2470 34061.764900 86669.438800
2471 33296.501200 86399.700900
2472 32994.567900 85433.005300
2473 31671.268500 86712.195500
2474 33903.987400 86494.708700
2475 34913.974000 87202.793700
2476 34645.645800 86444.432300
2477 31161.841600 88114.447900
2478 34446.753700 85523.850400
2479 32620.134800 85337.167000
2480 33372.055900 87048.050000
2481 31388.777700 87788.884300
2482 34082.596700 85931.359300
2483 33089.010200 85450.784000
2484 31729.046500 87893.058500
2485 32016.539600 87750.561900
2486 31450.721100 86447.738200
2487 34475.094100 86896.116000
2488 33113.173800 85987.466500
2489 31997.925500 86701.644800
2490 31591.552300 85893.278100
2491 34830.644600 86749.165500
2492 31945.149500 87438.328100
2493 31726.553600 85149.931500
2494 31394.888900 86693.298800
2495 33095.675200 87035.826600
2496 32600.688100 87478.057800
2497 34375.923400 85778.579400
2498 33758.156900 86753.325900
2499 31681.824200 86967.202100
2500 32264.308000 87540.001700
2501 33168.451400 85705.791900
2502 34948.137400 85799.418600
2503 33455.111100 85592.456700
2504 31903.768100 85754.391300
2505 33222.618200 85455.784800
2506 34240.649200 85587.184100
2507 31834.606700 85280.491400
2508 34655.368500 87481.136100
2509 34453.423100 86335.539800
2510 34586.751000 85673.300800
2511 31894.872800 87462.772400
2512 33329.277900 86383.034100
2513 32943.455800 86136.636100
2514 33667.604300 86910.550400
2515 34585.093200 87799.477800
2516 31038.795000 85086.318800
2517 34871.197600 87018.342200
2518 32333.752500 85893.289400
2519 34505.642700 86050.255800
2520 30834.908400 87861.105100
2521 32213.753100 87289.438000
2522 32816.794800 85535.229500
2523 31887.095900 87577.498000
2524 33068.733300 85314.113100
2525 31900.431300 88076.122800
2526 31941.263900 86044.121900
2527 32178.200700 88422.254100
2528 31899.040200 86484.693200
2529 31467.392700 85290.489400
2530 31977.647800 87130.541900
2531 32855.683900 87788.345100
2532 32135.701400 86175.795700
2533 34541.753200 86019.699900
2534 34220.655300 87567.800400
2535 31660.158200 86938.867500
2536 32229.310100 88097.241700
2537 33923.154500 86587.489900
2538 34626.758400 86970.841200
2539 33283.168600 86763.598500
2540 33386.230100 88184.475200
2541 32932.625700 85301.889700
2542 32994.011900 85606.621600
2543 32362.362400 88174.468000
2544 31517.667300 85694.939000
2545 33331.225300 85630.790500
2546 33713.720800 87370.837500
2547 34140.096600 85759.133100
2548 32878.735600 86424.143300
2549 33426.498100 86971.382000
2550 34250.931800 87625.858400
2551 33094.288100 85394.115700
2552 33180.951000 87209.997500
2553 33681.497200 87232.779100
2554 31901.539400 87366.658400
2555 33583.437300 86090.805100
2556 33160.951900 87299.999700
2557 34365.096900 87832.254900
2558 31678.215200 88346.128600
2559 31432.110600 86469.682900
2560 31128.513500 85233.821000
2561 32468.472900 85367.722600
2562 31151.842700 88258.619800
2563 30962.405000 87676.099700
2564 31600.166400 85561.050400
2565 33959.265000 86542.488800
2566 33285.390600 86657.485000
2567 32909.291700 85696.623500
2568 34903.970900 85808.307800
2569 33530.939700 86958.882700
2570 32286.808800 88074.186000
2571 34344.260600 86533.879000
2572 31962.650600 88423.639000
2573 32340.138600 87319.162700
2574 31352.668000 87683.048100
2575 34612.862200 85768.582100
2576 32136.255000 87235.268500
2577 31978.204700 86451.359500
2578 34045.374700 86335.259400
2579 31545.440700 88213.343500
2580 34542.868500 86468.876900
2581 30545.194300 87583.595200
2582 33323.445300 86865.823300
2583 34713.700600 87593.361000
2584 31810.711700 88457.525800
2585 33677.888000 87388.615200
2586 34303.151900 86784.444500
2587 31374.611400 86319.121100
2588 33300.390000 86372.200200
2589 34910.086000 86170.539900
2590 34900.082600 85883.588100
2591 31883.764700 88468.083800
2592 32997.900600 85655.234100
2593 32552.355300 86757.761400
2594 34202.594900 85764.411100
2595 31082.678700 87587.486400
2596 31927.931100 88016.399500
2597 32939.572800 88251.697600
2598 31238.226900 86044.387000
2599 32774.572100 86721.372900
2600 33602.888300 87349.724500
2601 33957.876200 86562.211700
2602 34338.424500 85926.361100
2603 34560.926800 87728.920600
2604 34975.921100 86473.602800
2605 34033.155200 86795.554100
2606 34883.977600 86442.767700
2607 31642.657400 87510.825100
2608 33059.566900 85283.001000
2609 34467.031400 85648.576300
2610 32867.902800 86023.298800
2611 33490.384200 86240.531600
2612 34961.476400 86573.327600
2613 32732.076900 87995.850200
2614 33193.448800 86274.419100
2615 34447.310900 86177.202300
2616 34207.316600 85902.748000
2617 33665.661200 87023.608400
2618 33239.283800 87404.446900
2619 32369.868400 85007.709100
2620 34680.368200 87156.126300
2621 32682.630600 87405.834500
2622 31891.539800 86657.475600
2623 30248.814700 88074.998700
2624 30228.537300 88023.053000
2625 33094.844100 87685.842800
2626 34767.310300 87418.078900
2627 33248.725000 86553.037900
2628 31589.327200 87097.202800
2629 32729.021600 88061.964300
2630 33774.821400 86033.582300
2631 34987.309400 86249.153200
2632 32478.470600 85802.456200
2633 34766.756400 86877.781500
2634 32006.261100 86156.349400
2635 34371.203900 86454.153900
2636 31595.441500 85865.499800
2637 33032.622100 85594.121400
2638 34022.599500 85574.127300
2639 31445.442100 87693.326800
2640 31841.273100 85344.104100
2641 33349.277100 86460.814100
2642 33168.171800 86298.030800
2643 33156.790100 88183.362700
2644 31939.602300 85553.276700
2645 31046.014100 85438.822100
2646 30253.258500 87819.712400
2647 32350.973500 88223.636500
2648 30721.023200 87580.818700
2649 34698.139000 85892.198300
2650 34835.643700 87946.145600
2651 31323.782600 85757.157900
2652 32093.480600 86156.072400
2653 33193.728200 85781.905400
2654 34362.035000 85935.528400
2655 31763.210700 86527.748800
2656 34437.040700 87867.534600
2657 31937.097000 87840.006600
2658 34246.209000 87703.638500
2659 32994.287900 86387.476600
2660 33489.555800 85385.506900
2661 33083.731100 85783.849400
2662 34987.305700 85954.424300
2663 32437.915600 85933.847500
2664 32162.920400 86732.479800
2665 34989.528000 87090.288900
2666 31612.104000 86880.531500
2667 34127.599900 86906.113900
2668 34298.425200 85588.295600
2669 34971.472500 87299.740800
2670 33216.227200 87057.771700
2671 33800.099300 85967.191800
2672 34412.310200 85511.627600
2673 32220.981400 85501.334800
2674 32943.736600 87651.119100
2675 34486.762600 87924.203500
2676 30231.314700 87879.714500
2677 34436.205400 86818.612700
2678 34689.257700 86504.711600
2679 32664.578800 85171.328500
2680 32194.589800 87912.235200
2681 32299.864600 87727.786500
2682 32515.970200 87951.127600
2683 31713.212300 86520.525400
2684 31122.399000 87223.030200
2685 32081.536500 87628.892000
2686 32958.735100 85611.899200
2687 33095.952400 86806.932000
2688 33202.618500 85480.229900
2689 34887.304600 85859.420600
2690 30903.517200 88050.832800
2691 33434.557400 85368.561500
2692 32034.323600 85227.713100
2693 31333.224600 88088.337400
2694 31502.948800 85072.706600
2695 32112.371000 85908.842300
2696 34485.093500 86831.113300
2697 33875.932500 86568.877600
2698 31835.985400 86805.256400
2699 31929.595600 87628.056100
2700 33162.900000 88063.079500
2701 33665.663800 87212.778500
2702 31098.510700 85799.934400
2703 30996.014100 85692.432900
2704 32451.524800 87474.723200
2705 33814.552800 87376.395600
2706 34938.976900 86423.323400
2707 33145.395000 86604.983000
2708 32925.400800 86361.364300
2709 34959.806400 87643.637300
2710 32092.091700 88442.253600
2711 32171.818900 85121.877900
2712 32545.692200 88224.749000
2713 31815.162200 85531.608500
2714 34619.529400 85949.421100
2715 34963.418500 86887.226300
2716 34798.976000 86253.318300
2717 33279.840200 87823.348500
2718 31369.611900 87599.435100
2719 32191.817800 85232.437600
2720 32051.540300 85852.729200
2721 32525.138000 85302.443300
2722 33632.052100 85382.730700
2723 34256.206100 86468.043200
2724 34374.534800 86047.475900
2725 32465.137300 85865.235300
2726 34384.534300 85846.359300
2727 31992.373900 87940.010200
2728 32018.490600 85164.099900
2729 31052.400200 86209.111000
2730 32899.013500 86818.042800
2731 31079.621900 86416.061500
2732 34418.977800 85783.857700
2733 32266.809800 87688.896000
2734 34547.588100 86304.984300
2735 34275.092700 85623.018700
2736 34916.196000 86088.038400
2737 32252.364900 88100.853400
2738 33779.266000 85979.414100
2739 34639.813700 86929.172800
2740 31707.101300 86365.241700
2741 31574.051300 86000.225100
2742 31956.817100 88315.021900
2743 31910.157700 85665.223000
2744 32644.855200 85573.007400
2745 32712.908500 85621.064500
2746 31278.226600 87153.308700
2747 31557.942800 85843.831700
2748 31332.391300 87514.154800
2749 34822.867100 86713.608700
2750 32026.264000 85774.393500
2751 34977.585000 86079.149800
2752 34705.089700 87226.962300
2753 33667.882300 86931.939700
2754 32562.910700 86639.147000
2755 34960.918100 87751.694700
2756 32750.685400 85559.396400
2757 31893.211100 85904.117200
2758 34460.374500 88002.816000
2759 32967.344700 86590.537200
2760 32980.678000 86769.152900
2761 34627.582700 85581.631900
2762 31677.378900 87361.377500
2763 31323.782900 85655.213200
2764 31069.622700 85751.599900
2765 32837.347500 86334.418400
2766 31952.651100 86174.682800
2767 33759.828000 87109.167000
2768 33120.117800 86543.592400
2769 34936.754900 86523.881500
2770 34387.312000 85801.913500
2771 32757.072600 86701.927700
2772 33160.949900 86554.981800
2773 33734.553800 87359.171000
2774 33667.611200 88040.581800
2775 32332.640900 88312.806700
2776 33799.267100 86667.212900
2777 34504.809400 86128.591000
2778 33241.508000 87887.517600
2779 31188.508300 87030.525600
2780 33283.723800 86449.702200
2781 33264.560400 87302.222100
2782 32992.347100 87790.567400
2783 34794.805600 86008.591400
2784 33609.551500 87089.164300
2785 34507.030000 85611.631200
2786 34702.589900 87153.903900
2787 34515.085800 85669.688500
2788 33396.780600 85395.228700
2789 32522.634600 87596.394300
2790 33901.210400 85901.635300
2791 33381.498500 86327.477400
2792 34909.531100 86215.263000
2793 31084.900300 87834.161100
2794 32324.313800 85102.156600
2795 33501.216400 86447.481600
2796 34725.922900 87093.068100
2797 33334.001900 87098.606400
2798 34168.428700 85856.635600
2799 33681.217600 85374.675500
2800 33588.441900 85432.731400
2801 33290.946000 86188.028600
2802 33199.841700 85273.556900
2803 34955.917700 87065.566000
2804 34739.533100 87416.134400
2805 34844.253500 87140.847200
2806 31557.661900 86392.738800
2807 34207.594600 85830.246200
2808 31504.608600 87984.723700
2809 34576.759400 87291.686900
2810 33802.045000 85838.022000
2811 34107.874500 86515.822100
2812 32801.795700 85413.281300
2813 34827.858900 85714.415800
2814 34590.370600 87716.142300
2815 32483.749000 88128.356100
2816 33158.731600 85259.945200
2817 34605.370300 87746.143000
2818 31782.941400 85397.994000
2819 33230.393100 86927.213000
2820 34757.588500 87582.249500
2821 34752.864500 86231.095300
2822 34387.868100 86185.812700
2823 31730.990900 86053.841500
2824 32442.917300 85568.283400
2825 31808.487300 86247.461400
2826 32366.807900 85778.287300
2827 30617.692000 88128.056200
2828 32197.096100 85034.930800
2829 31952.931600 85914.395900
2830 33230.676600 88093.914900
2831 32273.197900 86050.237100
2832 33124.564400 85552.176100
2833 31538.774700 85982.168300
2834 30500.750200 87924.437600
2835 31020.184600 85041.040400
2836 34050.375400 85899.413900
2837 32065.979100 86650.810300
2838 34253.153100 87731.417200
2839 34440.366300 85934.696000
2840 34433.144200 85850.804400
2841 32888.735000 86335.252200
2842 31075.733400 85952.437700
2843 31972.927100 87522.498200
2844 31992.647500 86803.869300
2845 33577.331400 85370.785300
2846 33744.822900 85881.078200
2847 30655.746600 87851.937100
2848 33198.729100 85584.121900
2849 31508.495200 87723.050200
2850 31440.998100 87494.433500
2851 31885.984000 86746.366800
2852 33053.734900 87928.906000
2853 33044.008900 86451.923000
2854 32957.902200 85489.117900
2855 31090.455000 85979.938500
2856 32434.302700 87324.997100
2857 34242.871800 86144.698400
2858 31092.400600 87480.538400
2859 32755.684800 85688.566600
2860 33161.784400 87043.604600
2861 31803.209500 86541.082800
2862 32437.913700 87295.829700
2863 33922.876100 86490.264400
2864 32265.420600 86003.846400
2865 34786.751100 86077.203800
2866 31603.772700 87987.503300
2867 33387.055200 87015.271600
2868 31992.369100 87021.373400
2869 32652.912200 88214.748900
2870 32846.517700 87842.235500
2871 33563.437200 86617.208500
2872 33107.899400 85235.777500
2873 32706.522000 85149.661300
2874 32315.696600 86046.348700
2875 32523.469800 87921.960000
2876 31808.489500 87965.562100
2877 31058.788700 86261.334800
2878 32619.300300 85632.453100
2879 32529.304800 85254.664100
2880 32067.926000 86143.849500
2881 32666.801200 85146.883200
2882 33185.950700 85748.015600
2883 31349.056800 86736.909700
2884 33392.896100 88117.805600
2885 32740.130600 87683.342300
2886 34435.089100 86189.980200
2887 31593.216400 86402.462300
2888 31087.123400 85484.933600
2889 32694.020300 85602.452800
2890 31719.045100 87049.149400
2891 31885.709000 87788.893000
2892 32084.312500 87404.995500
2893 34739.810900 87441.690700
2894 31440.727700 85153.819700
2895 32156.535700 87785.564600
2896 32712.633100 88078.631700
2897 33402.335100 85543.844000
2898 32442.637900 85897.457900
2899 32558.744100 86807.207300
2900 31279.615400 87633.879500
2901 34951.754800 86468.046900
2902 32246.255100 85937.733500
2903 32538.748000 85413.280000
2904 34881.752100 87428.911500
2905 31704.878800 86948.591100
2906 30854.353700 88397.513200
2907 32510.139400 85185.217000
2908 33735.657100 86747.769900
2909 34969.526200 85800.529800
2910 34733.423600 86456.933000
2911 33153.731500 85312.724600
2912 34843.978500 86518.324600
2913 34647.861900 85857.752100
2914 33426.501500 85493.287100
2915 33726.767100 85957.191000
2916 31985.707600 87993.344600
2917 33106.507100 86508.591500
2918 33117.064100 85658.845900
2919 32344.586600 85736.063900
2920 32874.018000 88079.744000
2921 34728.424000 88011.982100
2922 32709.576300 85372.446300
2923 34864.533300 86607.216600
2924 34544.260200 87324.465400
2925 33916.210900 86715.827600
2926 34457.036700 86556.657600
2927 31333.502100 87695.826000
2928 33210.392800 86410.811700
2929 34440.650100 86866.670300
2930 34112.602400 87105.286000
2931 31594.882900 86433.574700
2932 32459.579700 86776.372300
2933 34982.029200 87898.086600
2934 34645.648500 88050.594700
2935 31814.319700 87172.208300
2936 32009.593200 86289.132300
2937 32227.643900 88028.905900
2938 31727.655500 87260.542700
2939 32485.967800 87266.940700
2940 34555.088600 86337.485100
2941 34191.761700 86244.145100
2942 31914.594300 87178.042400
2943 33215.392800 86581.093900
2944 30809.908900 88004.720100
2945 31799.042500 87622.219400
2946 34282.316800 86494.433000
2947 32819.848900 86837.209600
2948 32780.129100 85529.951400
2949 34242.595500 86533.323500
2950 34633.425000 86761.388000
2951 31540.440200 86341.903000
2952 34584.808600 86106.924600
2953 34589.814400 86816.945900
2954 34393.144300 85520.238800
2955 32857.074000 88101.133800
2956 34947.309400 86641.662900
2957 32924.017000 88135.025000
2958 31555.717900 86131.618100
2959 33433.168300 85433.563300
2960 31479.608600 87136.645900
2961 32827.903600 86111.078700
2962 34719.534000 87659.473500
2963 32556.799700 87298.053300
2964 33282.337700 87285.832800
2965 32857.626200 85772.736300
2966 34856.477500 86724.164900
2967 34811.756400 86654.717700
2968 34043.152400 86111.641500
2969 32338.202500 85054.654900
2970 33850.100500 86745.271900
2971 34851.475800 87041.676600
2972 34514.534600 86438.042700
2973 30857.129800 88181.947900
2974 32622.353700 86545.533600
2975 34557.870800 87451.135200
2976 34657.304600 85629.411600
2977 32298.475500 88010.572700
2978 33013.734700 85238.832800
2979 31578.216800 86553.578100
2980 31762.108700 85374.382100
2981 32204.312300 87755.286600
2982 33318.448000 85613.567800
2983 31944.873300 88396.137000
2984 32963.458300 85234.943500
2985 34739.802800 85632.190700
2986 32592.357800 88056.964300
2987 34030.654900 85618.295300
2988 34828.970700 85777.195800
2989 34450.096400 87927.258500
2990 33141.233500 88038.633600
2991 33302.616900 85310.225400
2992 31327.667800 86287.174800
2993 31904.876000 87933.896900
2994 34667.313200 86976.952400
2995 31063.790400 87223.862600
2996 31877.105600 85235.768000
2997 31689.610100 85129.653000
2998 34129.540700 85850.246400
2999 32029.876300 85628.557200
3000 33105.951900 86715.541000
3001 31775.986300 87489.437300
3002 31997.647500 86752.479500
3003 32686.241200 87025.825300
3004 31876.264500 88374.467300
3005 33313.445500 86828.878000
3006 33207.063900 85255.500900
3007 32638.745800 88167.802400
3008 34714.535200 86815.279000
3009 32408.747500 86771.093900
3010 33739.544900 85910.523400
3011 32163.760400 85624.114500
3012 31757.378000 87774.722600
3013 34120.933900 87836.695000
3014 33143.175600 85454.117800
3015 31939.038400 87343.324700
3016 34730.368100 86877.503800
3017 33733.166400 87511.951700
3018 32815.681400 86227.748800
3019 31135.452800 86091.886900
3020 32291.252300 86158.296600
3021 32318.197000 88077.241900
3022 32186.262200 85259.105100
3023 31616.832500 85606.884400
3024 31977.933700 85626.056400
3025 31657.658700 86507.190200
3026 34297.876200 87924.200600
3027 34038.158200 87951.140800
3028 33106.785300 85959.132400
3029 34856.193200 85820.808200
3030 32654.297300 86431.086200
3031 32769.851000 85704.956000
3032 33467.056300 85411.062900
3033 31640.714300 87136.371600
3034 33942.884300 88152.256700
3035 33472.611100 85539.122000
3036 32169.865000 87178.601200
3037 31742.655200 87177.207900
3038 31168.785000 86050.775000
3039 34085.934000 87747.525100
3040 33166.509800 87885.016700
3041 31996.817400 86118.292200
3042 33665.384600 85393.286900
3043 32921.790700 86794.708800
3044 33140.399500 87924.740100
3045 34571.482900 87918.091900
3046 34943.694200 85921.645200
3047 32458.472100 85615.784800
3048 34171.767600 87990.588900
3049 31117.399600 87529.429400
3050 34557.317600 88113.929900
3051 32272.361800 86888.595600
3052 33116.509500 85458.840000
3053 32062.925900 87624.447200
3054 34058.709700 85636.629300
3055 34498.975800 85886.084000
3056 34587.311200 86364.708100
3057 32154.587600 87168.600700
3058 32000.986700 85819.949900
3059 33277.339500 85352.448700
3060 34533.975100 85888.584600
3061 32965.680600 87655.841400
3062 32154.032800 87439.997400
3063 32134.311100 87403.607100
3064 32510.135400 87694.453000
3065 31830.995200 85509.663700
3066 32467.357900 86342.749100
3067 34525.920400 86172.481100
3068 34525.093200 86894.727100
3069 32520.694300 85221.607300
3070 34714.256600 87056.677800
3071 31722.100100 86822.755100
3072 34990.361100 87609.469700
3073 32949.567100 86464.422600
3074 31612.381900 87137.482100
3075 34873.971600 85894.977300
3076 34348.980600 86267.480800
3077 33873.155100 85901.635200
3078 32134.312200 86223.297500
3079 33089.843400 85477.729300
3080 32029.870100 88271.132500
3081 33712.606500 87121.388600
3082 32195.698200 87381.385000
3083 32217.922700 87869.734400
3084 33317.611900 86157.194500
3085 31554.050200 87283.873600
3086 34633.147100 87172.793700
3087 31578.216200 86691.637100
3088 34872.309200 87870.587700
3089 34318.427600 86533.601200
3090 31737.109200 85264.379400
3091 31396.834400 85960.776100
3092 33008.181800 88148.637600
3093 32657.910600 85518.006000
3094 34646.202100 87362.244100
3095 30450.752000 87811.934600
3096 31713.766800 87313.043600
3097 33939.820200 86023.583000
3098 31600.999900 85528.827900
3099 31735.711600 86375.520700
3100 32151.533800 86229.964500
3101 31061.290600 87438.314100
3102 34596.760100 87916.702800
3103 33036.233600 85438.561200
3104 31116.566500 86999.134200
3105 31950.152100 88081.124200
3106 32078.480400 88366.416200
3107 31420.165700 87842.497000
3108 31999.870300 87371.659900
3109 34679.534600 87344.465800
3110 32990.955400 86716.929300
3111 34528.426100 86805.834500
3112 33277.335800 86872.489800
3113 34562.870500 86920.561500
3114 33147.620700 87751.956000
3115 34984.254200 86402.490100
3116 32647.909700 87575.005400
3117 32671.244400 87908.070500
3118 31892.652700 87711.668900
3119 32686.242800 85577.174300
3120 32183.199400 86271.632900
3121 31864.320200 87738.613300
3122 31439.610400 88189.453000
3123 31853.485000 87029.705900
3124 33167.894800 86866.656000
3125 33430.108300 86250.253600
3126 30966.848600 88034.721200
3127 33678.167100 87498.061700
3128 34700.924000 86878.337200
3129 33422.337000 87605.285600
3130 33736.495200 87127.500200
3131 33590.112500 87491.949200
3132 31792.107800 85269.935300
3133 33220.955300 88169.196000
3134 33764.831000 87343.060300
3135 31877.374300 86331.076400
3136 34970.639600 87132.512900
3137 32793.182300 86369.974600
3138 31864.040200 87046.928500
3139 31666.824200 87273.041900
3140 32026.542400 85706.336500
3141 31699.332300 85211.877700
3142 31192.952100 85841.880600
3143 32444.860800 88264.472200
3144 34180.928400 85869.136000
3145 31755.710300 87647.774700
3146 31915.428200 86605.252300
3147 32239.585800 87361.385000
3148 33782.045400 86750.548600
3149 31217.951200 87639.156700
3150 34473.985800 88068.651100
3151 33389.836700 85306.337200
3152 33114.563400 87024.993000
3153 34850.086800 87085.011600
3154 34908.141200 87705.583500
3155 33128.450800 86465.812700
3156 33135.117600 86686.651600
3157 31601.271100 86653.581200
3158 32185.700700 86066.347700
3159 32127.369700 87735.285000
3160 33020.955900 85536.619700
3161 34835.079500 85603.300500
3162 31714.879400 86164.956500
3163 34715.082200 85734.138400
3164 31509.607300 86706.913400
3165 34278.982900 86365.816900
3166 34341.479800 85709.966100
3167 32888.737200 85558.563900
3168 33126.508300 85674.679700
3169 32422.916800 88267.527700
3170 31680.992600 88174.176700
3171 32667.354000 85722.455700
3172 33324.555800 86708.875300
3173 33071.787300 85721.903000
3174 34696.471100 85690.525500
3175 34022.042700 86636.104000
3176 31993.483900 88100.014700
3177 32825.405200 85672.455500
3178 32699.578100 88310.030800
3179 33847.603000 86955.832500
3180 33309.835000 86952.491900
3181 34794.255400 87879.200200
3182 31977.933500 85650.223600
3183 31893.487400 88028.899100
3184 33038.735100 87875.570700
3185 31459.335900 85480.492100
3186 31711.823900 86181.901400
3187 34075.097100 85902.747500
3188 33074.564000 86749.430500
3189 34410.367300 86038.309600
3190 33468.718000 86842.490400
3191 32774.849100 86231.915200
3192 32517.913700 87813.623500
3193 33977.605400 87558.071900
3194 31872.651700 86574.139900
3195 32588.469200 85311.332700
3196 31833.765400 87761.946500
3197 33212.063500 85317.169400
3198 34888.140900 87388.077100
3199 33111.785000 86686.095900
3200 33446.785000 88245.034000
3201 32414.028200 88292.250800
3202 31134.620800 87340.256600
3203 33319.563300 88045.579800
3204 31912.658000 85631.611300
3205 32469.579500 86830.540700
3206 31071.288400 86303.558400
3207 33698.721500 87416.116000
3208 31997.375100 85893.007200
3209 34020.936000 87907.805900
3210 32706.520300 85477.449500
3211 34249.261900 86494.988700
3212 33062.897000 86386.088000
3213 32910.957700 85851.905500
3214 32797.906600 85468.838600
3215 34698.978600 86418.598700
3216 33770.378500 86670.268200
3217 33694.267700 86055.527000
3218 33842.877900 85863.856200
3219 34064.268800 87033.061100
3220 34959.248200 85767.195300
3221 32196.537300 85588.003100
3222 33374.558000 85548.010600
3223 34869.530800 86198.317800
3224 34597.314300 86788.611400
3225 34563.420300 86190.259600
3226 32137.643100 86995.263500
3227 31353.782900 85465.490700
3228 33302.057100 86854.156300
3229 34342.312800 85627.185900
3230 33964.820000 86399.428100
3231 34556.203200 86700.830100
3232 32448.191500 87438.055600
3233 31975.427800 86233.296500
3234 33225.951900 85360.504200
3235 31640.999000 85568.551100
3236 31156.842100 87799.160800
3237 31106.569400 85286.321400
3238 34320.098000 86993.063500
3239 32688.188700 87932.237600
3240 31902.096700 88216.126900
3241 33553.444000 87333.056900
3242 34950.640900 87828.918800
3243 31014.902100 85781.877900
3244 32989.845500 85572.176000
3245 32693.744400 85196.051700
3246 31808.485900 87397.213500
3247 32637.634600 87998.628500
3248 31339.613100 88008.334400
3249 31286.281600 88150.006200
3250 34066.213900 87090.562600
3251 32971.235000 85535.230500
3252 32819.570200 86330.529400
3253 33852.601000 85773.576300
3254 34586.203200 86733.331400
3255 33556.220700 85411.063800
3256 33097.064900 85595.232800
3257 32759.574800 85367.446300
3258 31887.383000 85187.711100
3259 33536.216500 86043.859000
3260 31312.392000 85974.108300
3261 34446.482800 86783.889100
3262 31703.220700 85526.607100
3263 32186.809800 86439.415700
3264 32350.699700 85364.665700
3265 32426.252800 85286.608700
3266 31349.335500 88234.454200
3267 34928.421700 86482.491400
3268 34299.816700 86511.933700
3269 33540.387900 85389.396400
3270 34977.305900 87200.571100
3271 34073.985700 85946.081800
3272 32519.856100 87371.110200
3273 31043.512400 85758.822100
3274 31703.211700 87638.051400
3275 31771.266000 86292.740400
3276 33056.509900 87193.886000
3277 32574.021500 86682.203800
3278 31732.934200 86194.958100
3279 33018.737400 88191.973200
3280 33528.717000 86891.936600
3281 31005.181700 87221.361500
3282 31649.046100 87486.935600
3283 31757.932500 86665.529900
3284 32747.075900 87862.513600
3285 31184.622900 88425.015500
3286 33898.433100 86700.549100
3287 34777.582400 85877.754300
3288 32971.513300 85343.835800
3289 30828.242900 88365.567100
3290 31894.041800 88393.080000
3291 31352.671200 85601.324600
3292 34322.313300 85588.295800
3293 33336.499900 86694.152900
3294 33633.715500 86879.437900
3295 31867.651300 87164.986300
3296 31027.958600 87360.810900
3297 31518.774200 86223.009100
3298 33232.618800 85288.002000
3299 31013.514700 87200.805400
3300 33335.113300 87147.218600
3301 32766.794000 86336.084600
3302 32257.647900 85339.386100
3303 32681.796300 86300.527600
3304 33002.621900 86777.764300
3305 32068.758300 88335.303400
3306 33708.722300 87498.339800
3307 32923.739000 88085.300400
3308 31515.718000 87353.597200
3309 34451.759600 86645.550100
3310 32323.472400 87333.329500
3311 34811.478300 86745.554200
3312 34159.823700 88031.978800
3313 33349.554800 86535.815900
3314 32497.638400 85374.667600
3315 33195.674900 85343.281200
3316 31900.438100 85339.104300
3317 34547.594900 87994.482800
3318 32992.345900 85399.115400
3319 33249.840100 85384.116100
3320 30807.964900 87814.159400
3321 34576.480300 86563.602400
3322 32464.024300 86635.535000
3323 32600.966300 87592.227900
3324 33568.722700 87407.780700
3325 31508.496500 86876.361900
3326 33443.444800 85579.956300
3327 32295.140500 86309.690500
3328 33532.890500 87463.336800
3329 34310.097200 86892.781900
3330 31305.731100 85163.819700
3331 32450.138700 88305.862800
3332 34477.864700 85714.133900
3333 34099.818800 85904.136500
3334 31915.151500 88248.350400
3335 31651.826500 87917.224400
3336 32516.245100 86769.983700
3337 34511.759400 86750.832200
3338 34513.705100 87106.124700
3339 34550.920700 86257.483300
3340 34962.585000 86919.171800
3341 32504.026400 88006.407100
3342 34750.645000 87822.810600
3343 31935.708300 88061.678800
3344 32532.914600 85469.948500
3345 31999.602000 85094.653100
3346 32715.965800 85199.107500
3347 30622.136200 87836.380900
3348 31967.649100 87468.051900
3349 34744.803200 85673.581200
3350 34799.248700 85806.641200
3351 33027.066200 85712.735900
3352 31702.935900 87878.057700
3353 32615.687500 87382.500100
3354 31531.552100 86106.894400
3355 33232.058800 86300.808900
3356 33633.437600 85824.964700
3357 34909.806800 87510.857700
3358 34861.197200 87266.685200
3359 33868.161300 87166.670800
3360 33808.436700 86962.498500
3361 32527.359200 88073.631900
3362 33295.950000 87509.727200
3363 33160.119800 87559.450700
3364 33260.950600 87562.784600
3365 33299.283600 87650.842700
3366 33773.989200 85885.523000
3367 33835.378200 85836.911000
3368 31965.428900 87686.392100
3369 34116.762500 86192.477000
3370 33974.544000 86756.663400
3371 33671.499100 87671.401700
3372 31837.376400 88252.793000
3373 34139.824600 88077.813500
3374 34181.486300 86742.220200
3375 32365.693500 87303.606900
3376 32682.355800 87997.239300
3377 31105.177900 87072.191800
3378 33278.447800 87085.550300
3379 34643.148900 88118.929700
3380 32704.573300 86256.915400
3381 33102.896500 86753.597500
3382 32838.737100 86629.426200
3383 33689.554400 87649.734400
3384 33990.931600 86577.490500
3385 31708.775300 85610.497200
3386 34353.984800 86832.779800
3387 33178.171800 86607.205400
3388 32775.127600 86545.534700
3389 31423.499700 88008.334900
3390 33743.997600 88002.247900
3391 32784.852100 85305.777900
3392 30603.525500 87903.604700
3393 32058.205200 87787.507700
3394 34352.868500 85736.911300
3395 31486.274800 87253.038300
3396 33605.936700 86021.358700
3397 34848.697300 87391.133000
3398 31825.715600 85706.333800
3399 31899.039400 87235.543400
3400 32216.534300 85888.843200
3401 31000.182000 87260.807100
3402 32949.846500 85585.509600
3403 31646.549200 88147.508900
3404 34014.264000 86006.638600
3405 32820.964000 88158.914000
3406 31141.291800 85096.596500
3407 31586.556900 85275.767600
3408 34885.920200 87908.088400
3409 32704.575300 87595.839600
3410 33167.618900 87391.113100
3411 34358.147300 86294.704100
3412 33695.111100 88094.750800
3413 30841.019200 87901.939500
3414 33634.824800 86068.304700
3415 32549.300100 86544.977500
3416 31085.177500 88013.332500
3417 32279.593800 85003.819200
3418 34072.318600 86033.306200
3419 32338.201200 85223.272300
3420 32986.510500 86067.190100
3421 34606.758800 87088.345900
3422 34065.652200 86306.369500
3423 33016.509200 86312.196900
3424 32504.301500 86254.136000
3425 33295.945800 86240.252200
3426 33564.549000 86015.247200
3427 34505.642000 85754.968700
3428 34772.579700 85582.744600
3429 34439.532700 85784.413400
3430 33611.778200 87858.352100
3431 33802.607000 87896.134300
3432 32859.014400 85959.685800
3433 33019.009800 85985.243700
3434 33096.507900 85922.186700
3435 32526.246800 85814.679200
3436 32986.233000 85982.465500
3437 33174.840600 87321.944700
3438 34369.812800 86075.809800
3439 34019.270700 88064.199600
3440 33100.674600 86864.155800
3441 33448.725900 87793.625800
3442 32828.181900 85961.907700
3443 32603.744500 85805.235100
3444 33174.284700 87233.609200
3445 33306.781100 87191.386200
3446 33373.999600 85952.466700
3447 32905.403200 87375.279000
3448 33548.718700 85712.460800
3449 34202.324300 87181.401200
3450 34423.152500 87240.573400
3451 33389.831900 86114.971500
3452 33659.825700 85831.631800
3453 34078.993000 87212.232500
3454 33894.545400 85744.687000
3455 34010.383200 87487.515000
3456 33273.725600 85836.074100
3457 34234.822500 87468.631300
3458 32506.245300 87107.770600
3459 34162.047500 87299.458900
3460 33603.440300 85606.625100
3461 33410.109100 86120.805100
3462 32947.345700 86910.267700
3463 34059.826800 87351.679800
3464 31209.060600 86313.006600
3465 33614.827300 85792.741500
3466 33929.823400 85470.235000
3467 33913.712600 85465.790300
3468 33339.279200 85843.574500
3469 31146.009200 86874.408700
3470 31033.513000 86725.512800
3471 32937.346300 87164.718400
3472 33838.435300 85606.627200
3473 33620.103600 85941.634400
3474 33912.883000 87160.005100
3475 33613.159200 85961.079300
3476 33370.111500 85867.742100
3477 33399.831700 86035.802500
3478 31240.728500 86527.735100
3479 33205.393600 85943.854700
3480 34264.543000 87587.802000
3481 34224.822200 87009.174200
3482 33292.057300 86040.524600
3483 34174.267800 87058.619200
3484 33330.667300 85998.301200
3485 33462.885700 85966.911800
3486 33659.271400 85703.572800
3487 33377.335100 85640.235500
3488 33545.386000 85648.847900
3489 33350.389400 85930.243800
3490 33648.161200 85629.681700
3491 32704.296400 87198.885400
3492 33586.215800 85918.300100
3493 34304.543400 87073.343800
3494 32854.848000 86883.322100
3495 33486.495700 86017.191200
3496 33953.716700 87214.451700
3497 34077.326400 87356.680400
3498 31172.952600 86856.908700
3499 34414.540800 87087.512000
3500 33626.494100 85751.351600
3501 33440.110800 85690.515000
3502 34146.491600 87402.238600
3503 34242.321900 87004.452000
3504 33061.788500 87442.225200
3505 34146.769500 87182.233300
3506 33130.395400 86052.746200
3507 33707.327200 85509.123500
3508 32814.849400 87260.831800
3509 33220.392600 86192.750400
3510 33111.787700 87559.728400
3511 32995.122700 87232.220100
3512 33362.611400 85908.576500
3513 33995.933500 85709.964500
3514 34474.261900 87193.072300
3515 34140.936400 87357.237500
3516 34024.271900 87282.788500
3517 33583.995800 85680.238100
3518 33888.440100 87283.340300
3519 34474.539500 87157.515300
3520 31005.180000 86328.001800
3521 34269.265500 87551.412000
3522 33879.551600 87334.452200
3523 32967.623200 87088.050000
3524 34052.603600 87565.851800
3525 33211.226500 85989.689400
3526 34124.268000 87623.633100
3527 33995.378000 85676.074600
3528 33065.675000 86053.301300
3529 33853.991000 85546.070000
3530 34280.378400 87319.462000
3531 31177.950500 86289.394000
3532 33034.011000 87340.000500
3533 33004.842800 86202.471700
3534 33032.066300 87273.332200
3535 32856.794200 87612.507100
3536 32875.958900 87224.442100
3537 33016.787300 86104.969100
3538 32895.126600 87620.285100
3539 33437.888300 85731.905000
3540 33648.994800 85587.458400
3541 32758.184300 87286.665800
3542 34126.213700 87138.342700
3543 34430.373800 87444.467200
3544 33253.448000 85906.353900
3545 32854.293600 87491.670600
3546 33801.490900 85683.573500
3547 33117.617700 86144.415200
3548 33523.720000 85637.180600
3549 33104.284700 86192.472000
3550 33493.996300 85912.466000
3551 31245.725900 86316.618700
3552 34141.492500 87258.068600
3553 33053.733600 87571.673000
3554 32968.456600 87215.830800
3555 32870.126800 87541.949600
3556 34245.101600 87188.346700
3557 33667.882600 85664.127400
3558 33426.775700 85971.078500
3559 33813.712500 85761.353600
3560 33549.272300 85936.355900
3561 32774.017200 87275.276600
3562 34210.378400 87051.953000
3563 33695.381800 85673.572400
3564 33530.940400 85830.519500
3565 33956.489500 85714.408800
3566 33948.989600 85581.071500
3567 34468.984100 87400.855700
3568 32859.570200 86951.379600
3569 32759.295300 87241.386900
3570 33848.713200 85572.737400
3571 31241.561400 86461.344600
3572 33310.669600 85754.405100
3573 34251.487800 87575.023600
3574 34138.156500 87006.394900
3575 34047.048300 87549.740000
3576 33906.495600 87301.396800
3577 34212.600300 87024.452200
3578 32788.460800 86871.654900
3579 33938.162000 87315.009100
3580 32632.353600 87319.165500
3581 34290.931500 87585.580100
3582 34370.374900 87022.231500
3583 32879.847500 86981.658300
3584 33079.288500 87555.561500
3585 33561.217300 85831.075300
3586 33976.211500 85574.960400
3587 33130.395300 86096.358500
3588 33288.447700 85781.628100
3589 33191.505200 85925.798500
3590 34241.212900 87300.572000
3591 34481.206200 87293.353300
3592 32997.624200 87630.007500
3593 33069.563500 86134.970300
3594 33740.937400 85508.568300
3595 34482.595000 87354.743700
3596 33857.879400 85656.906500
3597 34042.049200 87429.181200
3598 34093.435500 87601.965000
3599 33989.550300 87488.903300
3600 33467.332100 85701.348800
3601 34463.706300 87481.691000
3602 34465.650600 87061.122600
3603 34175.657200 87109.176300
3604 34237.323600 87162.234700
3605 34480.372700 87575.860500
3606 33849.546900 85478.012600
3607 32991.233500 86902.212000
3608 32796.516400 87043.881900
3609 34445.373700 87162.237300
3610 33648.716500 85655.793600
3611 33202.893100 86218.028800
3612 31214.060000 86283.283700
3613 32683.741300 87143.050600
3614 33941.490000 85450.234500
3615 31054.901300 86809.682400
3616 32694.852100 86914.711200
3617 33024.844400 87318.333300
3618 34286.487400 87546.412200
3619 34356.208900 87083.344600
3620 32616.798400 87114.160500
3621 32929.569700 87502.782100
3622 33924.545400 85611.350100
3623 33900.378900 85671.073800
3624 34313.988000 87114.734100
3625 33821.492100 85433.844700
3626 32656.797500 86924.433400
3627 33987.600200 85519.958900
3628 34218.989800 87443.074800
3629 33872.885900 87483.066200
3630 32905.125200 87311.110800
3631 34032.605000 87396.124600
3632 34324.264300 87581.969300
3633 33932.606900 87445.845000
3634 34467.595100 87086.679200
3635 33363.167500 85833.852100
3636 33819.824200 85642.739200
3637 34263.988300 87495.577000
3638 32899.569100 86910.823000
3639 32677.352500 86931.378300
3640 34195.101800 87389.461800
3641 31141.842300 86668.847200
3642 33185.671600 86049.690800
3643 32854.848100 86912.489600
3644 33898.996200 87399.176400
3645 33169.005500 86006.078500
3646 33565.105400 85908.022000
3647 33115.395600 86112.747700
3648 33013.732000 86035.245000
3649 33910.106500 87269.451700
3650 34415.930000 87167.515000
3651 33972.878200 85553.848700
3652 33310.390700 85921.910000
3653 32676.797000 87221.385800
3654 31201.007000 86447.732100
3655 32735.684500 86899.711000
3656 33079.285200 86244.417700
3657 33422.886600 86027.191300
3658 32564.855200 87038.324900
3659 32520.689600 87041.658100
3660 33927.050200 87210.284300
3661 33435.941600 86105.804800
3662 33998.989200 85424.122900
3663 32912.346700 87024.715000
3664 33445.665600 85771.350700
3665 34281.489200 87155.846200
3666 32940.957200 87083.327600
3667 33380.387900 86026.913300
3668 33372.612100 85773.017100
3669 33334.834100 85962.466900
3670 33747.324700 85689.128900
3671 33778.435100 85739.408200
3672 33738.436300 85658.016900
3673 34015.103900 87129.451300
3674 33417.331200 85998.301500
3675 34434.263100 87293.630400
3676 34416.763300 87390.854700
3677 31139.898000 86460.508700
3678 31144.619700 86719.404000
3679 31008.791900 86797.181000
3680 34412.873900 87579.193000
3681 34357.597200 87553.357900
3682 34371.485600 87618.360100
3683 34377.318900 87574.192200
3684 34361.487200 87333.074700
3685 34482.872600 87126.958600
3686 34401.486500 87250.295600
3687 32794.850700 87531.949300
3688 32864.015500 87454.169700
3689 33245.392200 86000.801000
3690 33242.614400 86041.635500
3691 34356.764300 87053.621400
3692 33441.222300 85633.291100
3693 33499.553400 87155.552800
3694 33588.994400 85823.019900
3695 33622.325400 85973.579700
3696 33604.826900 85868.021200
3697 33584.828200 85790.241100
3698 33651.493700 85716.628700
3699 33941.767600 85547.737200
3700 33709.825600 85699.128800
3701 33920.378600 85727.186700
3702 33902.051400 87355.008900
3703 33936.217800 87397.233000
3704 33937.328700 87366.676900
3705 33973.717100 87347.233000
3706 33503.440000 85961.356300
3707 33458.163200 86088.860000
3708 33261.225000 86033.301900
3709 33540.939000 85949.967400
3710 33517.606100 85982.745900
3711 33170.394000 86199.416900
3712 33427.053000 86067.470300
3713 33441.774800 86122.194200
3714 33566.771500 85966.634700
3715 33164.838400 86232.473400
3716 33261.224900 86079.136600
3717 33122.895200 86203.861300
3718 32763.184000 87168.329400
3719 32807.071700 87109.716900
3720 32791.239400 87463.614300
3721 32707.074400 87371.945100
3722 32800.683400 87342.778200
3723 32784.850500 87405.557400
3724 32722.351600 87188.885300
3725 33800.103900 85379.676600
3726 33782.325900 85458.011800
3727 33840.103100 85396.899400
3728 33893.156700 85712.463900
3729 33918.990000 85575.515700
3730 33591.771500 85897.188500
3731 33722.325500 85669.405800
3732 31236.838400 86730.517600
3733 32944.845900 86998.603300
3734 32973.734000 86958.324500
3735 32875.403100 86895.822500
3736 32759.850600 87084.160600
3737 31141.008800 86777.183400
3738 31861.264300 87695.556500
3739 32043.203100 86388.024600
3740 34079.826100 88132.258600
3741 31733.492000 85956.893900
3742 30590.470900 88233.337300
3743 32477.357000 87176.383000
3744 31768.209700 86736.920500
3745 32990.399500 86495.535000
3746 32978.455300 86484.701200
3747 31878.487900 86004.119500
3748 33456.778500 85497.731900
3749 34026.768000 86929.168800
3750 31177.121500 85398.544400
3751 34457.870200 86588.603300
3752 33981.217000 87386.956300
3753 33964.550800 87501.958400
3754 34913.414900 85774.973400
3755 34039.268400 87743.635000
3756 32275.139900 86611.365800
3757 33556.217600 86993.606100
3758 34723.701100 87820.588500
3759 32407.358900 87021.100700
3760 32553.746800 85578.007000
3761 32029.595700 85944.675500
3762 33250.949500 85672.458100
3763 33389.834900 85615.234900
3764 32836.794300 85507.173300
3765 32899.848500 85401.059300
3766 32629.580200 85138.271500
3767 31885.437000 85600.777000
3768 33375.947300 85483.286500
3769 32094.590700 88226.409900
3770 31161.286800 87552.486500
3771 32377.916500 86150.797600
3772 33836.490500 85693.018500
3773 33837.043300 86254.422300
3774 33599.269700 86507.206200
3775 33700.000000 86400.000000
3776 33582.047900 86469.427200
3777 33812.321500 86364.425700
3778 33595.659000 86366.646700
3779 33660.657600 86263.310700
3780 33590.103500 86394.425200
3781 33796.766100 86329.146800
3782 33673.712600 86440.816000
3783 33552.326900 86269.143800
3784 33592.048000 86310.256200
3785 33742.599900 86207.476100
3786 33947.597900 86298.591000
3787 33914.820300 86231.921900
3788 33820.377000 86385.259900
3789 33688.434600 86352.480200
3790 33481.772900 86359.423500
3791 33600.936800 86279.422000
3792 33677.323700 86396.648100
3793 33627.880200 86500.261900
3794 33838.432300 86314.146600
3795 33521.216100 86409.147400
3796 33613.158800 86253.588000
3797 33568.437100 86445.815300
3798 33744.544200 86155.807900
3799 33606.214500 86204.419800
3800 33763.155300 86403.037800
3801 33660.379600 86478.872600
3802 33592.326000 86227.476100
3803 33775.099700 86471.651200
3804 33791.488500 86516.097100
3805 33939.820100 86201.643500
3806 33618.714100 86315.812000
3807 33540.660000 86457.482200
3808 33635.658200 86324.701300
3809 33681.490400 86279.700200
3810 33598.992000 86539.707000
3811 33874.820800 86299.424000
3812 33529.271600 86381.924400
3813 33572.326500 86224.975900
3814 33527.883100 86261.921200
3815 33661.212900 86427.760000
3816 33686.212400 86414.704200
3817 33687.601200 86483.317400
3818 33888.431700 86154.975300
3819 33527.883200 86224.975700
3820 33540.382900 86205.530700
3821 33701.489900 86520.818600
3822 33591.769900 86488.316700
3823 33650.102000 86453.316200
3824 33941.764600 86254.978300
3825 32366.805200 86299.968900
3826 34656.480200 87733.364500
3827 34647.870000 87905.591100
3828 32352.922600 85247.995600
3829 34527.316000 87453.913100
3830 31347.390700 88031.946400
3831 33401.497800 86346.644800
3832 33384.554200 86159.139500
3833 33650.102200 86117.195200
3834 33334.000400 86077.192300
3835 34990.361800 87725.582700
3836 34929.251000 87404.743800
3837 34994.529100 87923.642500
3838 33650.106900 85447.176900
3839 34112.595800 86073.585100
3840 34179.817000 86105.530700
3841 34171.206100 85943.026700
3842 34108.429100 86034.695300
3843 33730.655600 86077.194400
3844 33802.876800 86036.638100
3845 31544.052200 88349.461100
3846 34257.323500 87320.017200
3847 33443.996000 86657.486000
3848 33372.056200 85805.518100
3849 32481.804100 85763.844200
3850 34757.867000 86997.230800
3851 34768.977800 87016.676000
3852 31099.899100 87979.165000
3853 33945.657200 86901.666600
3854 33885.098600 86419.705900
3855 34040.656200 86885.834400
3856 33355.388200 86754.432100
3857 33391.508200 88233.366400
3858 30674.912700 87915.272400
3859 31222.393700 86099.111000
3860 31455.442900 86130.504900
3861 32620.965300 85988.295300
3862 32603.743400 86046.908000
3863 34370.367300 85553.572900
3864 33506.216400 86785.822700
3865 33579.271900 86888.881800
3866 33586.494200 86909.715700
3867 33554.827600 86880.825700
3868 33512.049300 86697.209600
3869 33489.829600 86994.716300
3870 33598.436900 86737.489700
3871 33388.998900 86904.435700
3872 33588.714600 86651.098500
3873 33611.214300 86659.432300
3874 33615.380800 86628.876100
3875 33618.158800 86724.989600
3876 33428.718800 86719.431700
3877 33472.328300 86724.709900
3878 34375.923500 85881.082400
3879 33397.893100 87709.455800
3880 33098.177400 87703.343200
3881 33308.450000 87631.953200
3882 33291.228300 87702.233200
3883 33262.062000 87687.788300
3884 33236.785000 87716.955600
3885 33212.341100 87715.844300
3886 33256.506500 87636.675700
3887 33247.340000 87667.232000
3888 33260.117700 87713.622400
3889 33800.101900 86831.939600
3890 33762.327000 87040.554700
3891 33658.713500 86668.044300
3892 33684.268300 86588.875800
3893 33662.879700 86558.041500
3894 33735.104700 87012.775900
3895 33694.268300 86614.987800
3896 33654.269000 86609.153800
3897 33704.823700 86645.544300
3898 33668.990600 86540.263300
3899 33639.824700 86601.653500
3900 33720.101400 86681.101000
3901 33654.268800 86571.930600
3902 33694.545600 86542.208000
3903 33733.434500 86689.990400
3904 31968.205400 88287.520700
3905 31725.720400 85175.487900
3906 34378.146100 86126.088900
3907 34303.985500 86815.001200
3908 34186.761300 86070.807600
3909 34315.374600 86862.503000
3910 30262.980900 88115.277400
3911 33999.549200 87184.174500
3912 33422.333700 85660.791800
3913 31488.503600 85259.933400
3914 31357.118200 85216.876400
3915 32159.035400 87963.902600
3916 32090.426500 87781.396900
3917 31029.345600 86231.055400
3918 31170.729800 86001.051200
3919 31847.375000 87635.554300
3920 31739.049700 85829.390700
3921 31794.602400 85905.504700
3922 31789.879500 85958.006000
3923 31857.099500 85999.674600
3924 31815.157100 85933.283400
3925 31792.101900 85940.227800
3926 31825.711200 86022.175000
3927 31835.989000 85993.563000
3928 31825.156200 85974.951300
3929 34154.820800 86826.389500
3930 34213.987300 86862.780200
3931 34222.598700 86890.836700
3932 31539.605800 87406.099000
3933 33280.670300 87137.495900
3934 33586.497000 85527.733900
3935 32089.877000 85238.269700
3936 31640.999700 85441.882400
3937 33094.840800 86521.369500
3938 33148.173000 86775.820400
3939 33243.725100 86478.591500
3940 33132.340100 86789.431800
3941 33162.339300 86819.988200
3942 33156.783300 86496.369300
3943 33075.674700 86517.758200
3944 33084.285600 86537.481000
3945 33224.003500 86470.535700
3946 33027.898400 86540.536300
3947 32191.534300 87956.125200
3948 32504.859600 88029.741300
3949 33151.508600 85488.007700
3950 33974.823300 86873.610900
3951 33377.056100 87093.606500
3952 32857.070300 87001.103200
3953 34695.916300 85804.140200
3954 33151.507300 87189.163700
3955 32969.012200 87185.830100
3956 32916.235700 87221.664300
3957 32945.401600 87131.939900
3958 32921.513400 87184.718900
3959 32987.345000 87197.774900
3960 33138.452000 87152.773900
3961 32944.846100 87246.387100
3962 33123.730000 87099.161500
3963 33115.397300 87219.719900
3964 33087.342400 87194.441500
3965 33122.063500 87128.051100
3966 33073.176300 87250.554000
3967 32141.813700 86005.789400
3968 33153.173200 86927.768500
3969 34613.500000 86463.800000
3970 34005.570000 87856.590000
3971 32151.993000 86715.443000
3972 34595.555600 87079.166700
3973 33797.222200 87204.444400
3974 33831.666700 87222.222200
3975 33823.888900 87166.666700
3976 33856.666700 87202.500000
3977 33900.833300 86518.611100
3978 33258.888900 87478.055600
3979 32428.000000 86460.000000
3980 32487.000000 86487.000000
3981 32461.000000 86499.000000
3982 30673.356000 88247.037000
3983 30785.418000 88260.838000
3984 30749.028000 88237.860000
3985 30548.458000 88100.469000
3986 30680.298200 88268.346700
3987 30720.030000 88210.050000
3988 30594.232000 88145.169000
3989 30596.508000 88201.551000
3990 31139.441200 85435.813100
3991 31128.319200 85332.464100
3992 31260.399300 85409.024600
3993 31280.611900 85445.282200
3994 31197.964000 85232.991000
3995 31296.089200 85103.174200
3996 31264.943000 86475.071200
3997 31017.968500 86357.362600
3998 31294.965700 86228.728100
3999 31289.935400 86262.541700
4000 30829.210500 87774.076000
4001 30959.783300 87853.643300
4002 30308.874700 87743.460600
4003 30935.536800 88142.257500
4004 30897.360000 88007.412000
4005 30907.286100 87977.761400
4006 30896.866500 88027.488600
4007 30871.587900 88021.606400
4008 30677.970900 87861.909300
4009 30670.094900 87887.910300
4010 30416.638600 87556.797500
4011 30474.273700 87848.703000
4012 30502.340100 87819.304600
4013 30510.050100 87884.042700
4014 30535.874500 87851.199100
4015 30519.261000 87867.637900
4016 30419.674000 87858.722000
4017 30375.433000 87672.658700
4018 30404.071100 87703.339800
4019 30382.337200 87627.715900
4020 30408.903800 87811.246400
4021 30393.478100 87725.022200
4022 30436.942700 87714.605100
4023 30340.491500 87696.813900
4024 30408.642800 87659.378100
4025 30362.438700 87681.475400
4026 30350.905000 87714.446000
4027 30451.660500 88282.943100
4028 30513.276500 88316.215000
4029 30527.825000 88396.123000
4030 30455.068200 88215.085500
4031 30397.663500 87459.053000
4032 30299.161200 87533.331500
4033 30995.708900 87612.700000
4034 30564.871500 87697.036500
4035 30567.615800 87669.103400
4036 30577.369900 87723.894900
4037 30623.180600 87592.565100
4038 30741.562500 88287.579600
4039 30827.538800 88258.535700
4040 30503.200100 87791.179300
4041 30537.594600 87778.460100
4042 30513.789500 87752.160900
4043 30456.533000 87764.444500
4044 30502.997700 87696.113300
4045 30510.612400 87618.350500
4046 30489.199200 87773.919000
4047 30474.072500 88114.350600
4048 30568.367100 88170.238800
4049 30524.114100 88286.030100
4050 30855.725900 88288.520600
4051 30693.286300 88228.402200
4052 30802.017100 88239.054400
4053 34020.000000 87595.010000
4054 34144.720000 87313.890000
4055 34603.430200 91341.791800
4056 35038.143300 92897.947500
4057 35342.582900 91789.584800
4058 35893.129500 91082.901500
4059 35424.807800 93730.471900
4060 34542.039300 91784.022700
4061 34228.986300 93379.069500
4062 34319.263600 91847.356500
4063 35446.196500 93762.417200
4064 33732.052500 92815.440500
4065 33689.562900 94285.755500
4066 35246.471900 92936.558100
4067 34998.420600 91983.755200
4068 36402.018200 94070.758100
4069 33932.602800 91392.898100
4070 35913.686300 92597.662800
4071 33574.832700 92269.034400
4072 34728.980500 92130.145200
4073 33724.552600 92615.713900
4074 35428.972200 91109.845000
4075 36481.464100 94273.264200
4076 34564.537200 92586.828000
4077 36364.792000 93567.966700
4078 34672.876300 90890.115000
4079 35001.198600 92629.884700
4080 36332.564300 90806.228700
4081 34171.487600 91619.571000
4082 35017.311700 93133.509800
4083 35455.083400 90413.157200
4084 33871.778400 93577.123200
4085 33718.443600 93134.055500
4086 33850.108300 93325.727300
4087 35423.138100 91455.964900
4088 34534.260900 92101.255400
4089 34538.984600 91661.797600
4090 35960.071400 90158.983800
4091 33358.458100 93436.007300
4092 34001.489800 92495.433800
4093 34427.314200 92813.780100
4094 36322.565700 91957.650700
4095 34182.038800 93071.007300
4096 36011.460700 91399.022800
4097 36414.231200 91734.868200
4098 34257.036900 93075.730900
4099 33182.907800 93632.676500
4100 34928.422200 92261.261600
4101 35438.698000 93944.644700
4102 34318.152000 92292.372900
4103 35818.408800 91438.744800
4104 36037.303600 94511.051700
4105 35396.748500 91786.252100
4106 35591.466600 92460.436100
4107 36063.681700 91078.457400
4108 36310.900900 92422.937800
4109 36125.346900 90939.286700
4110 33590.387200 91800.686200
4111 34636.759500 92475.435400
4112 33775.950900 93817.128000
4113 35663.688600 91847.644300
4114 34409.823500 91001.503600
4115 35812.020000 91343.464500
4116 34230.375500 91745.129800
4117 34427.322800 91069.561000
4118 35615.357200 91259.850100
4119 34614.258100 92769.334300
4120 35872.852200 91754.031900
4121 34237.328000 93742.132800
4122 34037.320700 92886.001000
4123 34894.261600 90640.384900
4124 34292.877400 91337.898700
4125 35429.252400 93757.139400
4126 36392.567500 93314.904800
4127 35920.905600 90451.493800
4128 35971.183700 91252.074100
4129 33887.047700 91491.789900
4130 36240.623000 91105.681900
4131 34550.649400 92340.986100
4132 35845.907900 92134.596700
4133 33097.634700 93192.944100
4134 33726.225300 93470.452100
4135 36183.405200 92850.724900
4136 34286.490200 91163.727800
4137 34502.589300 93028.511600
4138 36401.182500 93737.971100
4139 36155.350400 92906.837400
4140 36333.401400 92604.608600
4141 33059.570900 92156.802500
4142 35358.139900 91322.905800
4143 33614.564900 93813.516400
4144 35115.369500 90213.150600
4145 35248.143900 90152.593500
4146 33383.736800 93909.628000
4147 34416.762800 91867.357900
4148 34375.648900 92744.332700
4149 35987.852400 92716.276300
4150 34455.648100 92729.610400
4151 33962.878600 91959.304100
4152 36433.958100 93621.301400
4153 35268.143200 90395.933900
4154 35389.246400 92347.932600
4155 35226.476200 91234.014400
4156 36335.347200 93436.018900
4157 35577.021900 92177.374600
4158 34054.819700 92959.614600
4159 36215.071700 93154.622000
4160 35649.800900 91074.011700
4161 33920.936500 93154.059100
4162 35325.358800 92334.320800
4163 33537.892000 92469.876200
4164 36315.899400 91482.638800
4165 33652.055600 92780.995200
4166 33510.114200 92398.761900
4167 36031.190200 94047.700500
4168 35432.584900 93615.467600
4169 34362.874300 91924.859600
4170 34780.926300 91580.965100
4171 35366.474500 90339.821300
4172 36254.800300 94278.263300
4173 36380.621600 92227.656400
4174 36217.008500 90312.045500
4175 35944.240800 89733.136100
4176 35489.246700 91753.752300
4177 35573.410800 92203.208500
4178 36144.242600 93862.139900
4179 35469.246600 91867.922000
4180 34119.821200 91880.968300
4181 36244.785600 90353.435600
4182 35033.420200 92694.608600
4183 34541.483900 91757.077400
4184 35082.318400 94263.266800
4185 35644.800700 91674.306000
4186 35588.133500 91927.924200
4187 34589.537900 92325.707800
4188 34632.037500 92277.372500
4189 35416.477300 94127.983800
4190 35578.691200 91264.850000
4191 35442.028300 93462.684300
4192 34114.540500 92940.448200
4193 35287.583300 91950.422400
4194 36060.070500 91979.594700
4195 33016.250100 92724.324300
4196 34044.544300 92140.421900
4197 33797.606200 91270.671700
4198 34602.870900 92009.030000
4199 33858.436900 92294.037200
4200 36050.631500 93518.519900
4201 33415.398800 92813.773100
4202 34116.206600 92992.116500
4203 35892.295200 90452.605000
4204 34167.598800 91595.681600
4205 34937.588500 92585.994600
4206 35720.911000 91738.474600
4207 34300.098000 91525.124800
4208 35973.129600 92562.662300
4209 34208.151500 92710.163700
4210 34544.535600 92808.224900
4211 36007.294100 91252.352100
4212 35702.299800 91480.411900
4213 33481.790700 93964.075400
4214 34021.210700 92792.942500
4215 34881.756100 92688.219900
4216 34555.655500 90912.892800
4217 33916.778200 93641.569000
4218 35104.255800 91406.795900
4219 35017.314100 91226.514400
4220 33661.231000 93832.683800
4221 35112.864200 91822.361800
4222 34041.770000 93391.844600
4223 35517.857900 91600.969900
4224 36483.392300 90525.110800
4225 34919.533200 92485.991500
4226 33628.997400 91790.963900
4227 35768.410000 91570.414700
4228 34886.478400 92372.376400
4229 35972.852000 92594.051800
4230 36157.288000 90293.989200
4231 35744.243700 91440.688900
4232 34026.766700 92112.087400
4233 34862.034200 92475.435600
4234 35343.973400 91357.628700
4235 36070.070700 91426.524000
4236 35995.626000 90487.328400
4237 35701.744400 91441.522000
4238 35678.133700 91027.621600
4239 35279.531400 90477.603100
4240 33885.949800 94133.529100
4241 34842.312500 92324.874500
4242 33997.325600 93337.953200
4243 34336.209800 91410.400700
4244 35524.525100 91382.352600
4245 35101.196500 92767.665800
4246 34615.924500 92821.558700
4247 36221.178300 91929.316500
4248 33847.892500 93719.069500
4249 34595.646000 93012.400000
4250 36466.449300 90657.892900
4251 35426.747600 91836.809500
4252 34692.318900 91211.790400
4253 33242.351200 93244.611800
4254 33511.787300 93566.288900
4255 33920.658900 91336.785400
4256 34364.537600 92771.555800
4257 35047.586900 92794.055700
4258 34112.327200 93575.183200
4259 33979.274700 93526.013500
4260 34971.477000 92674.330500
4261 34327.593800 93307.403900
4262 36024.243300 93364.626400
4263 36086.459100 91067.346100
4264 34314.817600 92553.492700
4265 33802.610700 93381.005700
4266 35693.965300 92108.484400
4267 35384.247100 92215.707500
4268 36172.015700 92674.331700
4269 33065.410500 94041.015900
4270 33065.678300 91213.444000
4271 34157.321200 91567.625200
4272 34764.540800 91137.344700
4273 36332.019700 94118.536600
4274 34900.644700 92498.214200
4275 34208.151400 92730.719900
4276 35240.917100 92051.258000
4277 34659.265500 90820.668700
4278 35331.470800 92081.259500
4279 35668.411500 91538.468800
4280 33592.616700 93276.558000
4281 34573.149300 92210.981500
4282 34543.705800 91827.635200
4283 35691.189000 91595.692800
4284 34628.981400 92558.216000
4285 35008.701900 91434.851800
4286 35904.795900 91635.139900
4287 34531.760500 92407.933000
4288 34696.480800 92096.255200
4289 34730.097900 90767.889300
4290 34498.149200 92538.215200
4291 35495.360300 90116.758800
4292 34307.040600 92401.265400
4293 35656.188400 92319.322400
4294 36003.127000 91659.863700
4295 35344.526600 91939.311600
4296 34648.705900 91582.074900
4297 33295.118100 91622.346400
4298 35256.192400 92676.273700
4299 36165.354700 94044.922700
4300 36394.790200 92910.727900
4301 35267.580900 92557.659500
4302 33373.178200 92674.880400
4303 35607.301800 91140.124500
4304 36010.904400 91800.423400
4305 33411.232800 93069.610100
4306 36355.897900 90934.288600
4307 35967.572600 91321.242600
4308 34972.310100 91928.475400
4309 33100.410800 93461.006600
4310 33582.344600 93990.743900
4311 33778.995200 92491.822100
4312 36452.565600 92465.716800
4313 33629.832000 92355.149400
4314 35376.473900 93471.296000
4315 34651.203500 92055.976100
4316 34899.533300 92102.090400
4317 35730.632700 91198.460100
4318 34447.871600 92576.271800
4319 35542.022700 91967.369600
4320 35766.465200 92209.875800
4321 34643.987700 90927.338000
4322 35376.194100 91559.578400
4323 35490.082700 90358.711000
4324 34764.812600 92003.474800
4325 33159.573200 92445.979500
4326 35413.137800 91576.246000
4327 35379.255700 94041.870400
4328 33681.784300 94358.535400
4329 34555.100300 90768.167500
4330 35030.364800 91950.421000
4331 34952.310400 92155.147900
4332 33895.104300 91256.227300
4333 35047.038000 90238.984400
4334 35268.970200 92732.664100
4335 35431.747300 91886.811000
4336 35554.244300 92231.542400
4337 35507.301300 91888.200800
4338 33517.063800 93298.225900
4339 33057.346900 91573.453900
4340 33774.550300 91474.567300
4341 36450.618900 91380.414100
4342 35148.144600 91240.959100
4343 36378.398100 91463.194100
4344 34529.260900 92210.981600
4345 34435.095500 92066.253900
4346 34602.315600 92216.815000
4347 35979.238800 89910.364200
4348 34020.933500 91816.799400
4349 36080.347600 91769.867500
4350 35364.811700 94096.594300
4351 35266.760300 94378.547700
4352 35487.032600 94357.712300
4353 35284.815100 94362.158200
4354 34100.099400 92275.149100
4355 33941.768800 93126.837100
4356 33825.104800 92411.819200
4357 35150.917300 92744.053800
4358 35775.910000 91679.862200
4359 36079.792100 90939.841900
4360 36021.191800 94246.318300
4361 36018.404700 91047.622700
4362 33842.333000 93466.009300
4363 35733.688500 92389.324400
4364 35442.023000 92526.547700
4365 34682.592100 92585.161300
4366 33591.784300 93424.895900
4367 36376.453800 91561.252300
4368 35830.352300 90178.706200
4369 35905.074700 89767.859300
4370 33723.720000 93054.055100
4371 35068.975400 91945.143200
4372 34824.539300 91224.569500
4373 35467.861100 90322.876500
4374 36451.464900 94525.218000
4375 33409.290700 93744.624400
4376 35064.257500 91248.459400
4377 35081.755000 91602.077900
4378 34414.539300 92459.045500
4379 35049.530400 92490.436100
4380 33339.283500 91700.682200
4381 35083.141700 92260.151200
4382 33424.289300 93327.670900
4383 36244.511700 91078.181000
4384 35983.413200 94079.646000
4385 36457.296200 94139.649100
4386 33969.558700 93955.744000
4387 33224.851200 93886.847600
4388 35307.309300 90289.541800
4389 33969.274400 93494.346400
4390 36457.840600 90963.179500
4391 33902.324500 91880.968000
4392 33719.272800 91920.135400
4393 33140.688600 93192.110800
4394 34217.873900 92653.495300
4395 36106.465700 93902.140800
4396 35878.129000 90515.384900
4397 35920.907100 89855.640000
4398 33220.130100 92869.884100
4399 35981.738100 89986.200000
4400 35930.073100 91058.734000
4401 35870.908800 92475.160300
4402 35061.197200 92384.599400
4403 33544.832500 92071.527100
4404 35322.580100 92535.436700
4405 35330.083000 93084.617600
4406 33644.283300 93489.342100
4407 35273.138200 92256.540700
4408 33747.884400 92431.264000
4409 34920.646700 91564.298800
4410 35217.314000 93940.479900
4411 35472.856400 92602.383000
4412 33520.956300 93923.797000
4413 33572.065900 93853.239700
4414 35309.808600 90457.880400
4415 35842.852300 89999.255600
4416 33774.549400 91749.019000
4417 35154.808900 91673.191200
4418 34132.320600 92531.824500
4419 34042.889100 93841.296500
4420 33067.914600 92725.991400
4421 35831.185500 90305.099600
4422 33848.450600 94067.970700
4423 35390.089400 94206.041800
4424 33603.164900 92185.976000
4425 34224.819400 92405.987500
4426 36075.355100 93908.529800
4427 33752.887500 93183.777900
4428 34657.043300 90767.889500
4429 35270.914300 92630.161400
4430 34856.205100 91300.682400
4431 33642.620500 93881.018600
4432 34235.387200 94015.750100
4433 36238.678200 91727.645200
4434 34538.709700 91174.009400
4435 36160.628800 93341.015700
4436 33471.787600 93284.892100
4437 34316.763500 92108.477300
4438 34755.373300 91305.960000
4439 33241.795500 93346.281600
4440 34236.763200 92526.547100
4441 35645.912300 90446.215000
4442 33468.734600 93857.405700
4443 35794.520400 91377.909800
4444 33922.610700 93598.513100
4445 34270.097200 92203.758500
4446 33852.611600 93539.066800
4447 33300.959700 93058.498300
4448 35023.421000 91797.360600
4449 35579.521900 92306.266200
4450 35763.965400 91292.629600
4451 35620.912400 91391.798000
4452 36172.290500 90963.176600
4453 34808.706700 91155.123100
4454 34390.929100 92184.313700
4455 35444.523300 92272.098100
4456 34212.598000 91895.135600
4457 34104.821800 91530.679800
4458 34092.877200 92408.486800
4459 33515.667200 92190.419900
4460 33977.322800 91909.302500
4461 34458.984300 91954.583200
4462 34127.605400 90963.998000
4463 35819.242900 92394.324900
4464 33765.661200 91645.683000
4465 35463.133800 92510.158400
4466 33839.271600 92544.601300
4467 36143.680200 92060.985500
4468 33291.793700 93164.055400
4469 33963.157000 91707.073500
4470 33977.044900 92043.473600
4471 35375.357100 92508.213900
4472 36256.464700 94078.257200
4473 36463.674600 91651.255000
4474 35796.742700 91531.525000
4475 34779.813100 92128.756600
4476 33811.778600 93484.620300
4477 34800.651700 91082.898900
4478 35190.923300 90219.817500
4479 35979.794100 91856.535700
4480 36294.232900 91747.368100
4481 36188.683800 93456.297000
4482 33156.241900 93657.398800
4483 34145.654300 92315.428500
4484 34045.375700 92942.669500
4485 34127.046100 93439.903100
4486 35407.864000 93771.306600
4487 34254.264900 91528.179900
4488 34084.822700 93321.843100
4489 34816.759900 91495.408200
4490 36403.119700 91065.404200
4491 34622.038400 91719.299500
4492 34662.314500 92067.365400
4493 35165.364500 91644.301600
4494 33142.632200 93355.170500
4495 33654.282200 93399.061400
4496 35843.131400 92405.436300
4497 35362.312400 94260.210300
4498 33162.898600 91128.164000
4499 34995.922400 91654.856700
4500 36323.676900 91714.867300
4501 36353.674100 90694.558800
4502 35449.526100 91513.188800
4503 33551.226200 92838.218300
4504 33498.177800 93777.126200
4505 35211.471100 92619.050100
4506 35427.862700 93583.522000
4507 35166.196800 93051.839600
4508 34924.255100 92053.478300
4509 33542.900100 93886.296100
4510 33789.828300 92557.379300
4511 34295.379500 91112.615500
4512 35426.473700 93563.799100
4513 35973.406800 89733.969500
4514 33555.395800 93283.502900
4515 33904.547600 92638.215200
4516 35578.413500 91162.624900
4517 33373.170600 92015.968200
4518 33858.159100 92988.223300
4519 35786.188400 92692.108900
4520 34116.500500 94439.932500
4521 33183.742300 93225.444900
4522 33051.522400 93896.012700
4523 33612.331200 91741.240200
4524 34372.876300 91409.845600
4525 33065.133500 93662.676000
4526 35408.972700 93384.626100
4527 33294.293500 93604.899200
4528 33578.169600 92738.216600
4529 36338.679900 92768.501400
4530 33531.222800 92264.589400
4531 35336.469400 92685.718500
4532 36020.071400 91088.457500
4533 34957.310300 92566.271800
4534 34248.983600 93268.510600
4535 33627.889900 92937.108900
4536 34910.925200 91494.297200
4537 34598.988600 90768.167400
4538 33762.606800 92532.378600
4539 35315.080700 92701.830000
4540 36003.682800 91989.872600
4541 33658.454200 94026.857000
4542 35571.745900 92834.056300
4543 34025.379900 93314.897400
4544 34907.311200 92549.604600
4545 35483.970700 93277.955600
4546 33320.959000 93118.221600
4547 34920.366600 92168.481300
4548 34224.820000 91833.744300
4549 34221.766100 93473.239200
4550 33227.351900 92957.385300
4551 36133.687700 93944.086500
4552 33376.513700 93736.012900
4553 34209.266800 91356.787200
4554 35406.472700 91092.066600
4555 33389.013700 93795.458800
4556 33636.775100 92179.031700
4557 33034.847200 91978.742100
4558 33960.379300 91734.018800
4559 36223.127900 93529.910200
4560 34785.645800 91995.974900
4561 33811.222600 93456.563900
4562 36410.622600 92662.943800
4563 33918.727100 94085.471700
4564 33805.673300 94166.307800
4565 34181.209000 92398.764800
4566 33711.497700 92656.548200
4567 33671.509700 93982.966700
4568 33295.395200 91950.132800
4569 36494.227900 90846.232500
4570 35232.864100 91483.742000
4571 36467.564000 91839.870700
4572 33670.113700 93246.556500
4573 33638.726500 93314.336600
4574 33429.002500 92059.025500
4575 35482.582800 90412.879500
4576 33458.732800 93493.787400
4577 33329.570200 93380.172000
4578 34014.826700 91109.834500
4579 35964.239000 91985.150000
4580 36040.904000 91691.253800
4581 33895.936400 92797.941500
4582 35075.918800 92567.382600
4583 33988.167500 93787.960200
4584 35797.021000 89803.415600
4585 33997.323100 92387.096700
4586 33068.738700 92247.360400
4587 35097.308100 92002.922900
4588 33719.828300 92141.253400
4589 33646.231900 93923.520000
4590 36498.333300 92078.611100
4591 35029.531400 92192.649400
4592 33025.416600 93054.607100
4593 33704.562000 94339.924000
4594 33822.048100 92002.916400
4595 34657.593500 91718.744200
4596 35719.243200 92179.041700
4597 35674.522600 91363.742000
4598 34358.152000 92040.141600
4599 33502.067900 93942.686300
4600 34677.314400 91912.638500
4601 33047.913500 93318.780400
4602 33767.049500 91880.690000
4603 35385.079500 92587.104700
4604 36481.735400 93644.079800
4605 33108.743100 93812.678500
4606 35452.864000 93889.643000
4607 35930.905400 90177.317600
4608 34080.380500 91188.448700
4609 35156.753400 93165.454000
4610 36221.180600 92541.273600
4611 34420.367900 93021.288000
4612 33902.324900 93064.335900
4613 33286.236800 92541.817800
4614 33361.782600 91820.129800
4615 36282.016900 93672.969200
4616 35769.521300 89849.806000
4617 35382.586800 93775.473700
4618 36133.126900 92570.996200
4619 33746.216500 91997.916000
4620 34300.369800 92936.283700
4621 35301.192100 92731.553000
4622 33690.942800 92657.381500
4623 33396.226000 91794.018200
4624 34781.481000 91667.355500
4625 36372.854500 94293.820000
4626 36398.123300 93108.233000
4627 33697.329700 91567.625200
4628 35462.861800 93524.075200
4629 36251.457200 92379.325400
4630 33388.735000 93459.897100
4631 33178.743100 92901.550800
4632 34728.427300 91552.908800
4633 36237.844500 90907.341800
4634 34160.931800 92065.975200
4635 33616.509000 93766.570500
4636 34029.549400 91073.166900
4637 35477.583900 93564.076500
4638 33485.667300 92049.303500
4639 33187.065300 91529.565100
4640 34193.153800 91724.296100
4641 36445.067100 92960.451800
4642 33798.994600 92900.998200
4643 33970.391200 93882.963600
4644 34245.373600 92615.994400
4645 34745.930800 90934.005500
4646 35921.746000 93946.308500
4647 33926.490800 92161.255300
4648 34719.816400 91535.408400
4649 36060.629000 92706.554100
4650 33837.048700 92952.110900
4651 33354.283100 91595.123900
4652 36033.689600 93972.420300
4653 36419.790400 93533.521200
4654 33872.047600 92937.111100
4655 34326.767000 91234.285800
4656 34038.433500 91619.015500
4657 33328.728500 92105.692500
4658 36427.287200 92118.487800
4659 34657.876500 90870.114400
4660 35079.809400 91743.192700
4661 35122.031400 91689.580300
4662 33089.578600 93314.058100
4663 36040.347900 90775.670300
4664 35837.019600 91385.965800
4665 34402.040000 92237.649100
4666 33638.167300 92797.662200
4667 33543.173900 93246.001900
4668 34027.599900 92688.495000
4669 35420.366800 94258.543200
4670 35148.696800 92997.115900
4671 36355.902100 92907.671900
4672 34158.983300 92989.061600
4673 35355.361100 91622.913500
4674 34939.255200 92641.829600
4675 36075.078600 94069.367900
4676 35878.969100 94047.145000
4677 33940.659500 91218.726400
4678 33423.447400 91793.740500
4679 33797.049800 91479.011900
4680 35107.030300 92873.501900
4681 35929.794400 90554.830400
4682 35637.856800 91195.126200
4683 36152.574700 93681.302100
4684 34629.537300 92441.267400
4685 34810.372700 91266.515000
4686 35695.910900 91798.476200
4687 35570.080800 90331.210500
4688 35562.024900 91110.401200
4689 33574.839000 93217.112400
4690 35485.360200 90601.774600
4691 35183.975700 91568.188500
4692 36155.069200 91240.408100
4693 34311.758000 92986.841300
4694 35135.641300 91917.087100
4695 35929.516600 90577.053200
4696 33358.458100 93460.174700
4697 35774.242900 90672.333700
4698 35920.074200 89798.138100
4699 36372.842800 91317.356100
4700 35895.080100 94039.644700
4701 33401.786500 92469.040000
4702 35698.133300 90178.428000
4703 33118.745700 93052.663500
4704 36350.898300 90995.401500
4705 34098.445900 94072.695000
4706 34716.764600 90900.393200
4707 35414.527100 93238.232400
4708 33048.187100 92405.700300
4709 35997.299400 93702.690800
4710 35513.692600 91230.682100
4711 33929.824300 91657.072100
4712 35541.469000 91495.966700
4713 33464.844000 93546.010600
4714 36280.622500 91414.025400
4715 35934.797500 92710.720600
4716 35531.747900 91065.677500
4717 36048.412500 94096.868800
4718 36235.067300 91668.754600
4719 36133.680100 91979.039500
4720 35641.744600 91831.532700
4721 35128.427600 94053.539100
4722 36074.512600 90377.047000
4723 35535.637200 90160.093500
4724 33673.162800 91902.356500
4725 35325.647000 94301.600600
4726 35251.749900 92206.817100
4727 33848.161200 93134.057500
4728 34668.148300 92317.929500
4729 35312.593000 94434.382500
4730 35536.470500 90126.759200
4731 36255.070600 93222.679700
4732 33593.453100 93688.513200
4733 34555.648900 92521.270200
4734 34585.093100 92515.714500
4735 36297.569700 93183.234500
4736 34305.371200 93261.568500
4737 36473.681600 93767.416600
4738 36322.852000 94019.367100
4739 33813.160800 92448.487100
4740 36287.841300 90122.040400
4741 36090.347600 91919.593400
4742 35452.582400 91323.184100
4743 33998.992700 91161.502700
4744 35250.084400 93129.618700
4745 36071.179400 90330.934400
4746 34019.546100 93287.674200
4747 35248.973100 93109.062700
4748 35987.848500 90529.274200
4749 35791.465100 91788.476400
4750 35283.691900 92587.660300
4751 33802.609800 91025.385900
4752 36286.732800 91995.707100
4753 34719.536700 92259.316100
4754 33665.664900 92415.429800
4755 35174.538800 94278.267200
4756 35306.191600 92607.660800
4757 34316.203500 93170.733900
4758 33135.964600 93909.902700
4759 35483.415400 91164.846700
4760 35174.812200 90166.482800
4761 35293.980200 94138.818200
4762 36276.190900 94538.273500
4763 34872.034200 92345.153200
4764 35927.295300 89918.975400
4765 33083.738000 92229.304500
4766 35239.261400 94426.049400
4767 35256.192200 92476.268400
4768 36473.677600 93021.009000
4769 35749.522200 92660.163800
4770 34044.267500 93279.341000
4771 35698.966700 92517.104800
4772 33454.003000 91303.170900
4773 35823.130400 90492.606400
4774 33261.794800 93368.226900
4775 33341.793400 93927.405600
4776 36334.228500 90383.715200
4777 33665.666100 92985.998800
4778 35305.645700 93953.535000
4779 35670.076900 92179.597100
4780 34087.888600 93873.798700
4781 35146.757100 90125.926300
4782 35084.259300 90283.152300
4783 34860.651600 90592.327700
4784 36067.568400 90356.213000
4785 34887.871900 91194.568800
4786 33292.896000 92074.302500
4787 36338.676100 90942.899700
4788 34970.643700 92295.151900
4789 36142.846600 91926.538300
4790 36285.064700 90720.669500
4791 34566.204600 92447.656500
4792 35062.585900 92425.989600
4793 35485.915400 90913.450700
4794 34734.264000 91049.842100
4795 34870.648300 91466.241100
4796 35303.148300 94381.880900
4797 34352.039400 92564.048800
4798 35722.577200 90384.546600
4799 35817.297600 89939.253500
4800 34301.765700 91402.344500
4801 35188.704700 94189.097900
4802 36464.237700 93830.751800
4803 33155.686900 93456.284600
4804 35611.746500 89938.697700
4805 34975.921500 91833.472500
4806 33626.226300 93240.445700
4807 33055.691600 92653.766100
4808 33219.574300 93154.610400
4809 33251.239700 93148.221600
4810 33329.012700 92538.485300
4811 33632.334200 92766.828400
4812 35668.411700 91244.850000
4813 34854.817400 90792.890000
4814 33066.799900 93814.067000
4815 34443.150500 92353.764300
4816 36105.072200 92629.608300
4817 35904.801600 93940.197200
4818 33943.990700 92265.147800
4819 36235.626700 93189.345400
4820 33020.134100 93976.569400
4821 35758.131900 90322.322300
4822 33263.456100 92309.030200
4823 33157.354100 92651.822000
4824 35888.684100 90273.154200
4825 35248.148000 94202.987000
4826 35728.688100 90178.705900
4827 36262.570600 93321.849200
4828 36342.284700 90103.984500
4829 35633.412600 90042.312100
4830 34075.099400 92555.435900
4831 35720.077400 90688.167300
4832 35022.866700 93047.674000
4833 36208.122200 90762.614600
4834 35046.202400 91197.346900
4835 35583.413700 90483.715900
4836 35407.589400 94276.599400
4837 35344.246600 92552.937200
4838 35260.086500 91260.959500
4839 36149.791400 91510.971600
4840 36059.791100 90543.996700
4841 35811.742300 91222.350100
4842 35112.865500 93168.787800
4843 34296.204100 92852.947300
4844 35252.032000 90933.728600
4845 36387.843300 92104.320700
4846 35005.927000 90397.321700
4847 35516.748900 90236.762600
4848 36297.844300 91515.973000
4849 35402.028700 90753.168200
4850 33702.331500 93020.443700
4851 35527.577700 92439.879600
4852 36295.630100 94010.477800
4853 36237.296400 93796.305200
4854 34843.985000 90639.829300
4855 35491.192400 91400.408500
4856 36330.346900 93347.961100
4857 35364.529600 90578.995600
4858 33650.954500 93986.577700
4859 33574.841500 93589.344700
4860 35869.796400 91830.978400
4861 35191.754800 91235.681200
4862 33684.008000 94243.531800
4863 36096.741500 93302.680800
4864 35470.643500 94257.709700
4865 34658.981100 92587.383600
4866 36241.182600 93444.908100
4867 35671.466900 92636.551700
4868 33306.506300 91399.562000
4869 36093.123400 90461.772000
4870 35113.142500 93053.229000
4871 34180.376100 91860.412100
4872 35705.355400 90053.423700
4873 34280.381800 90878.164300
4874 34435.106800 94411.325000
4875 36175.348900 92646.275600
4876 34538.705800 91874.025500
4877 36045.072400 92501.550300
4878 33267.626300 92507.371100
4879 33519.556100 92224.587800
4880 36176.738900 92910.448700
4881 35225.088900 90325.098300
4882 36226.464700 94035.478100
4883 34445.656500 91000.671000
4884 36483.398500 93205.458000
4885 35244.254600 90455.657900
4886 36375.894300 90330.658600
4887 34443.988100 91220.120200
4888 33420.953900 92719.049000
4889 33128.177900 91961.242700
4890 35464.800800 92215.430500
4891 34148.716000 90981.776600
4892 36406.454400 92183.489000
4893 33997.877700 93105.727000
4894 34490.100500 90956.226500
4895 35034.257700 91319.849700
4896 36421.175000 91141.517800
4897 33262.350200 93018.219800
4898 35872.573800 90008.700400
4899 33491.224200 91399.563400
4900 35747.021000 90421.770400
4901 35744.243300 90357.879100
4902 35751.465400 90376.213200
4903 34031.494900 93502.959000
4904 35855.351900 90041.757100
4905 35552.303300 90084.535500
4906 35484.247400 91583.191300
4907 36095.348000 91207.906600
4908 35755.354300 91030.122100
4909 33525.390000 91435.953800
4910 33474.280500 91242.613200
4911 35421.192500 91758.196100
4912 36464.511000 92920.173100
4913 35312.035400 94198.819800
4914 34439.812700 92945.174200
4915 33667.891000 93204.889500
4916 36114.518900 93473.519200
4917 34764.258300 92228.203900
4918 35076.756600 91363.183900
4919 35173.144900 90489.269600
4920 35682.856000 90512.050900
4921 34012.045500 93254.061900
4922 33091.799100 93908.235600
4923 33019.584000 92968.494300
4924 35892.296100 89918.697500
4925 33070.126700 92187.914500
4926 36228.400800 92112.653200
4927 34236.759700 92923.504800
4928 35247.863100 91669.580300
4929 35454.256300 94440.770400
4930 35851.741600 91304.297100
4931 36020.633400 93859.917200
4932 35612.301900 90012.033300
4933 35522.304200 90357.600000
4934 36125.906500 92917.670800
4935 33259.017400 92755.160800
4936 34620.930500 91251.234600
4937 35625.356700 91428.743300
4938 35949.523800 93980.476100
4939 35208.421900 90560.105500
4940 33682.610000 92704.604800
4941 33607.890700 92740.161100
4942 35719.799400 90126.481800
4943 36040.071200 91216.239900
4944 35300.082000 92892.946000
4945 34863.705100 91274.570800
4946 35602.299500 92196.264000
4947 35106.480800 90310.375300
4948 35868.129800 90945.675100
4949 35768.966200 92445.992500
4950 35850.076000 92502.105200
4951 34297.320600 91473.734800
4952 36331.455000 92095.986800
4953 33457.341300 92827.940100
4954 35193.144400 90899.560700
4955 35728.966000 90484.272600
4956 36480.896000 91187.352900
4957 33465.391700 91283.170200
4958 34401.765600 91322.621900
4959 33227.619100 91189.277200
4960 33354.569400 93237.945700
4961 33122.066600 91435.395100
4962 36337.842600 90909.287600
4963 34176.765300 91655.127600
4964 35154.532100 91502.353300
4965 35265.649700 94429.104900
4966 35562.024900 91225.959900
4967 35623.134900 91113.457100
4968 35728.965800 90232.318800
4969 34173.721800 94018.527000
4970 33109.566000 91262.056700
4971 34365.103000 90831.220700
4972 33202.629700 93466.007300
4973 34168.428000 92936.282100
4974 35327.030500 90825.947800
4975 34256.771400 90839.551400
4976 35594.244100 92277.932400
4977 33283.728800 91260.668500
4978 33973.155900 92879.611100
4979 36309.788200 91828.203400
4980 33464.565800 93413.507100
4981 34951.482100 91180.124100
4982 35230.644000 90399.267300
4983 34232.318600 93333.512400
4984 34376.760800 92637.662400
4985 34778.980100 92557.660400
4986 35780.631600 90980.398400
4987 35491.470900 90974.285800
4988 35652.578700 91288.739900
4989 35178.700300 90803.446700
4990 35673.687600 91959.591800
4991 35223.699500 90643.164000
4992 35587.301100 91757.086000
4993 33042.359300 93164.609900
4994 36181.741200 93714.914100
4995 33123.189900 92726.269600
4996 33261.239200 93885.459100
4997 34572.868000 92987.676700
4998 36170.346000 91775.979200
4999 36360.620900 91693.478000
5000 34223.148200 93002.951900
5001 36185.898300 90285.378000
5002 35548.414600 90334.821600
5003 35057.308800 92187.093700
5004 34833.145200 91980.419600
5005 35480.643600 94302.433000
5006 36164.788200 90510.662300
5007 36143.684500 93166.844200
5008 35436.195000 90385.100700
5009 35177.862600 92969.615000
5010 36456.731700 92233.212800
5011 33106.240300 92380.976900
5012 35227.583800 92152.926900
5013 33844.270400 91777.631100
5014 35405.639300 93359.625300
5015 33867.047800 91655.127700
5016 34873.984700 90562.326700
5017 36490.349000 93931.866100
5018 35650.356600 90710.112000
5019 36079.797400 93400.461300
5020 36250.903800 92761.556100
5021 35127.032800 91455.130100
5022 34540.095400 91706.242900
5023 34701.481300 92335.152300
5024 35777.020500 90815.671200
5025 35180.089100 90560.383100
5026 34877.595000 90907.615900
5027 35411.751400 90278.430500
5028 33107.076500 93722.954800
5029 36368.128500 93914.086900
5030 35110.917800 92515.992100
5031 34193.431500 91889.302100
5032 33491.508500 93195.723700
5033 33242.342300 92088.468800
5034 35012.031500 92414.044900
5035 35545.914500 90045.645500
5036 35331.751900 91230.403500
5037 36101.188600 93991.309900
5038 34888.703300 91495.130500
5039 34218.441800 93911.858200
5040 35353.135600 92597.382800
5041 34868.423000 92190.703700
5042 36341.172800 90220.377100
5043 35215.648900 94255.766300
5044 34752.875800 90672.608400
5045 35638.690300 89980.643500
5046 35123.698400 91645.134800
5047 33702.333800 93179.333600
5048 35779.242700 90535.385400
5049 33978.712300 92274.037300
5050 34717.876600 90655.385600
5051 35912.017300 90014.534100
5052 33535.667800 91324.838700
5053 33532.889900 91375.396100
5054 36121.455900 90434.271100
5055 35235.088000 90927.617300
5056 33095.687600 94041.571800
5057 35780.631300 90304.821700
5058 34122.599400 91559.013900
5059 35803.408400 92123.763000
5060 35263.971100 92867.389700
5061 34281.208200 92150.145500
5062 34020.936800 93374.343700
5063 36259.229800 90229.265700
5064 33748.162800 92567.101600
5065 36213.127200 92921.282400
5066 35761.187700 91814.032500
5067 36108.131100 93712.413700
5068 35237.584400 91906.809500
5069 34326.760100 92788.778400
5070 35543.136900 90502.882900
5071 36120.353700 93801.860500
5072 35233.977800 90207.317200
5073 34501.481700 92636.552000
5074 35287.581400 92786.832200
5075 34358.441800 94371.878300
5076 34503.436100 90620.106600
5077 33821.214900 92034.028500
5078 33260.960700 92622.654400
5079 35853.685500 90801.504100
5080 33446.502800 92174.029400
5081 35404.805500 93310.734800
5082 36391.171800 90443.440000
5083 36254.242100 94034.644700
5084 35243.137300 92733.219700
5085 34990.088400 91736.803200
5086 35938.968800 94048.256100
5087 34651.481800 92234.037600
5088 36261.467500 94357.710800
5089 34035.388400 93772.127300
5090 34966.761400 90384.821400
5091 35814.241800 90017.033800
5092 33361.784900 92272.642100
5093 36157.846800 91131.793300
5094 34431.764600 91442.902600
5095 35298.691500 92519.325200
5096 35484.526500 93311.012200
5097 35030.088300 92976.560800
5098 34343.992200 90836.775900
5099 36188.123700 90989.566400
5100 35398.136200 92065.148700
5101 36335.069100 93092.398900
5102 34852.595400 91051.787000
5103 33109.856000 93263.779000
5104 35512.859200 91274.572000
5105 34713.425600 92285.428200
5106 36050.348400 90975.120500
5107 33437.058700 91452.620500
5108 35130.924500 90193.150200
5109 34534.823800 90673.164200
5110 34422.040900 91706.241800
5111 33178.186500 93355.726200
5112 35052.869200 91126.233800
5113 34188.989100 91360.953800
5114 36202.568300 91174.572700
5115 33547.067200 94041.856500
5116 33052.623100 91289.557200
5117 35489.526000 91319.850800
5118 33872.608800 93404.619100
5119 33911.769600 92424.597700
5120 34866.200500 92110.145800
5121 35262.866000 90217.595300
5122 35696.744600 91704.584700
5123 35178.145100 90429.267900
5124 33351.236200 93368.782900
5125 34721.487400 90677.330800
5126 34822.035100 92321.540900
5127 33256.229400 91286.224700
5128 35197.317800 94439.105900
5129 35285.921000 90227.040000
5130 33428.449500 92314.312000
5131 36017.016100 91336.243300
5132 33265.961300 93167.110800
5133 35507.860100 90147.037400
5134 34437.591100 92887.672000
5135 35602.302200 90519.272800
5136 35044.815300 90361.487600
5137 34596.206900 91546.518100
5138 34413.151200 92172.091100
5139 35360.083700 91484.576200
5140 36312.847600 92987.395900
5141 33357.345700 92697.381100
5142 33625.667800 92813.218000
5143 35792.298200 91223.461200
5144 33026.236900 91609.565700
5145 33193.740100 92515.982300
5146 36403.675400 91526.529300
5147 34496.767400 90891.503100
5148 36266.733600 91628.198200
5149 36084.236700 91988.206200
5150 36320.063000 90602.055100
5151 34107.327800 90963.719900
5152 35382.028500 93364.347900
5153 34882.040100 90549.548500
5154 35236.754700 90894.283000
5155 34053.162100 90954.274500
5156 34140.932000 91909.024900
5157 33464.557200 91793.740700
5158 34424.534700 93095.179500
5159 34552.322500 90803.168200
5160 33328.727900 91281.780600
5161 33225.119400 91126.775200
5162 34536.760800 92265.428000
5163 34794.535600 92244.037900
5164 33393.179300 93288.780600
5165 34308.148400 93206.567500
5166 35378.696500 90181.483100
5167 34335.658100 90967.612400
5168 34263.427900 92751.276500
5169 35250.365800 90386.767000
5170 36111.736000 91867.925600
5171 35935.905100 90257.876000
5172 36419.789700 92914.894800
5173 35147.313200 90292.597200
5174 34250.097600 92066.809000
5175 33372.338500 91156.498800
5176 34300.372800 92639.051000
5177 34169.541800 92590.993100
5178 36219.786100 90249.543800
5179 35738.132400 90333.433700
5180 33253.739200 93492.675200
5181 33648.722300 92920.164300
5182 34788.702400 92276.539100
5183 33404.565900 92836.551200
5184 35815.909100 91713.474600
5185 35990.905200 91016.510400
5186 34153.709800 91797.354100
5187 35007.313500 91364.850500
5188 35807.575200 90100.370100
5189 35836.741800 91246.517700
5190 33556.781300 92669.048300
5191 36343.961300 93752.971300
5192 34563.430400 91376.514100
5193 35989.237700 90717.613000
5194 36388.405800 93906.864600
5195 33390.955500 92791.828300
5196 35316.475200 90573.717500
5197 35814.519500 90060.924300
5198 36014.521100 93552.409400
5199 35765.631000 92083.761800
5200 33715.386400 91215.113700
5201 33350.402900 93347.393300
5202 33383.171500 91205.111500
5203 34192.048900 90962.332000
5204 33763.440100 92908.775600
5205 35757.298700 90480.383700
5206 35756.187900 89928.141900
5207 35330.914100 92762.664900
5208 33176.520100 93300.169000
5209 35612.579300 91362.630500
5210 33342.625100 93174.333600
5211 34454.258100 92844.614800
5212 35015.649200 90385.377100
5213 35779.242400 90235.930300
5214 36434.789600 93497.409200
5215 34555.377800 90858.447100
5216 35642.023500 90554.274100
5217 36139.796600 93587.411000
5218 35788.131100 91883.756900
5219 34773.708200 90757.611200
5220 36187.009500 90383.158600
5221 35276.194100 92999.337600
5222 33327.896600 92222.639700
5223 36299.244600 94340.765900
5224 33584.833000 91405.119700
5225 35348.424600 94340.768300
5226 36052.851000 92647.108500
5227 34808.424000 92181.814000
5228 33689.552800 91334.839900
5229 35540.081600 90231.484700
5230 35597.857800 90581.219000
5231 35256.197900 91200.124600
5232 35270.087400 90602.051600
5233 36440.059800 90391.494500
5234 35214.810800 90837.614600
5235 33628.998600 91399.564100
5236 33192.069200 92293.751400
5237 35692.855700 91658.194600
5238 35473.968900 91818.476200
5239 33268.460900 93499.064400
5240 33347.902900 93209.889700
5241 34696.759100 92350.986200
5242 35493.143000 94267.154200
5243 33350.124100 93025.164700
5244 35743.687700 91849.311100
5245 33555.394200 93125.722500
5246 35426.473200 90214.539600
5247 35148.416900 92554.048700
5248 35359.252100 90754.279200
5249 34781.760500 91493.741400
5250 35336.191400 92636.272700
5251 34254.258900 92963.506500
5252 34297.041300 92189.035900
5253 35292.862400 91607.912400
5254 35560.080600 91052.343900
5255 35981.460100 90023.701300
5256 35339.259000 94422.993000
5257 35980.348600 90423.437300
5258 33395.954600 92634.045900
5259 35157.038500 94149.652400
5260 33920.116000 94186.031600
5261 35974.516600 91027.621900
5262 33274.007700 91691.514900
5263 36323.676900 92012.651900
5264 36197.564600 90241.210100
5265 33905.658400 91499.012300
5266 34335.937200 90779.551800
5267 34296.771200 90793.717800
5268 36377.290400 92845.726100
5269 34734.819200 91104.565800
5270 35425.084700 93544.909500
5271 35422.583900 90600.663300
5272 33297.617800 91493.731700
5273 35741.188100 89963.698500
5274 35472.578200 92339.599600
5275 34505.367200 92989.065500
5276 36067.012900 90427.882000
5277 35195.085800 91730.692900
5278 33306.510700 92350.421700
5279 36265.899900 91780.424400
5280 35115.091900 90267.040700
5281 33850.936700 92158.477000
5282 36013.686500 92950.171200
5283 34108.996400 93691.017300
5284 35196.749100 92555.159600
5285 33377.070700 93981.296300
5286 36292.566100 91885.704600
5287 35835.631300 92317.934200
5288 35701.466600 90696.223000
5289 36113.402400 90893.729600
5290 36183.679200 91705.699800
5291 36361.457500 93084.621000
5292 35895.629100 90837.338500
5293 34548.147100 92770.723400
5294 34106.220700 93813.797400
5295 33924.559300 94374.094300
5296 34002.878300 91814.299300
5297 35822.574900 90535.107600
5298 35873.129600 90860.117000
5299 35819.519400 90651.222000
5300 35061.204000 90328.986800
5301 33556.228000 93167.111900
5302 35042.586400 92612.106200
5303 35370.923200 94242.154100
5304 33064.859600 92925.438800
5305 36460.621800 93132.122700
5306 33531.777300 91875.410000
5307 33188.459100 92339.308700
5308 35420.362400 93516.297400
5309 35419.533100 94205.208300
5310 33165.966000 92744.604100
5311 34333.985700 91839.856300
5312 33198.462600 92560.428900
5313 35184.809400 91473.741700
5314 36306.730000 90094.539600
5315 35815.910000 92550.439500
5316 35557.025400 89949.531300
5317 35554.247800 90134.259500
5318 33315.958500 92662.934900
5319 33165.676900 91941.520400
5320 34611.210700 90755.667100
5321 36108.400700 90481.494800
5322 33145.411000 93104.331400
5323 35567.857900 91357.352300
5324 33249.294700 92631.821400
5325 35987.850600 89807.583000
5326 34198.988800 93461.571700
5327 34742.036400 92329.596400
5328 33948.990000 92032.362100
5329 35358.970800 92959.336900
5330 35421.200300 94294.377600
5331 33598.449500 93241.834800
5332 34348.425200 92904.060700
5333 34930.644100 91911.807700
5334 35430.645400 94391.602500
5335 36456.177700 93436.574400
5336 33729.282900 93620.733700
5337 34188.438500 90902.607900
5338 33462.619200 93025.165300
5339 33767.618600 93924.076300
5340 35676.188900 92488.215100
5341 35326.747800 92802.943700
5342 35940.073100 91198.183300
5343 33384.846400 93575.732800
5344 34943.144100 92212.371500
5345 36190.905500 92966.005800
5346 36452.288300 93188.513000
5347 34474.261500 92253.205400
5348 35725.910500 90837.894000
5349 35225.082000 92692.107500
5350 35842.298200 92457.104100
5351 36294.788800 91382.913400
5352 33402.899400 92912.107800
5353 34905.089100 92447.656900
5354 34576.210000 91065.674200
5355 33797.896200 94019.079800
5356 35263.420800 90571.217200
5357 35627.855100 92239.876100
5358 35073.426000 90311.208600
5359 33147.628900 92430.978900
5360 35440.635100 92127.928300
5361 35477.582800 90039.256400
5362 33977.324000 91382.064500
5363 35589.246700 91061.233200
5364 33878.172200 94165.197100
5365 35192.866300 91050.954000
5366 34076.777500 93859.909100
5367 33696.504700 93537.120700
5368 34819.542000 90478.990900
5369 35090.643800 93180.455000
5370 35823.964400 91587.915600
5371 34033.433500 91770.964400
5372 33204.019100 93312.113800
5373 35878.962600 90702.612400
5374 35816.464000 90584.275700
5375 34648.155700 90639.829500
5376 35347.582400 91874.309700
5377 36382.839000 90190.654200
5378 34390.380200 90869.555600
5379 34976.761700 90305.374900
5380 34582.876300 91113.175400
5381 34564.815600 92489.602400
5382 33251.508500 92072.913100
5383 36324.517700 93877.974500
5384 34102.876800 91992.361200
5385 33437.900600 93606.289200
5386 33971.495700 93456.011900
5387 34825.646100 92496.825200
5388 36478.394700 90822.620500
5389 35442.305300 90986.508300
5390 35312.584000 91677.081200
5391 35492.856200 92614.883300
5392 33865.109500 93427.953100
5393 35345.363600 90719.555800
5394 36387.014300 93609.912200
5395 35483.697500 94017.702100
5396 36236.186500 94015.477500
5397 36000.904600 90897.062400
5398 33237.897200 91511.509500
5399 35475.914800 91411.241900
5400 34570.099300 91022.895400
5401 34324.261400 92639.884400
5402 36237.570900 92816.835300
5403 33666.507800 93725.736200
5404 36082.292500 91118.458900
5405 34286.763500 92280.705800
5406 36342.018900 94061.868500
5407 35025.642400 92422.378400
5408 34534.820000 91303.734400
5409 34475.658600 90643.718000
5410 35263.976600 90647.053100
5411 33981.767800 92624.604000
5412 34021.225000 94365.484100
5413 35095.091800 90373.432600
5414 35899.240900 89853.139900
5415 35112.031000 93010.450000
5416 36332.846600 93201.012800
5417 35370.360500 91676.248500
5418 34768.424900 92309.873500
5419 34114.557400 94316.594900
5420 36091.464200 93573.799300
5421 35101.203400 90245.373500
5422 33281.793100 92614.598800
5423 34540.376800 91110.119200
5424 36160.906000 92952.672000
5425 33874.270700 92553.768400
5426 34023.433100 92041.251500
5427 35308.422600 93883.533000
5428 34261.214900 90932.054200
5429 36233.401200 91251.797800
5430 33010.682000 91855.127600
5431 35664.522800 91309.296100
5432 36263.118500 90292.600800
5433 36196.183200 93266.847200
5434 33743.441000 93024.610500
5435 35714.799600 90091.202800
5436 34046.225600 94242.980100
5437 34445.095200 92183.202800
5438 33806.775800 93277.669200
5439 34897.318200 90446.767700
5440 35087.030300 92799.055600
5441 35230.087100 91281.515500
5442 36358.117500 90139.541200
5443 35123.147200 90225.928600
5444 33637.620100 94207.418900
5445 36142.569000 91011.789100
5446 35770.631800 90954.564200
5447 33363.171700 91716.516000
5448 35746.743400 90973.731500
5449 33958.434700 92190.145400
5450 35262.865500 90666.776100
5451 35423.699300 94104.094100
5452 35293.697000 91241.236900
5453 35673.967200 90340.100300
5454 35367.858400 92790.165600
5455 34387.592300 92825.446900
5456 33669.005300 93529.898500
5457 34633.429600 91385.126500
5458 33444.569300 93977.686300
5459 34069.821700 92127.921500
5460 35516.468800 91669.305400
5461 35238.699100 90595.940200
5462 35625.079400 89992.032600
5463 34132.319200 92794.332500
5464 33886.213500 92018.472500
5465 36037.021500 93798.249000
5466 34008.443300 93697.125600
5467 34631.202500 92766.278500
5468 36277.848500 93459.908600
5469 35788.966000 92513.772000
5470 35634.244900 92690.997100
5471 35735.354800 92264.599200
5472 36370.065800 92136.265600
5473 35722.855200 91538.746900
5474 36355.065300 91638.754300
5475 35919.795700 91290.130400
5476 36045.903800 91816.257300
5477 34371.767300 91136.506200
5478 36453.393300 90145.375100
5479 35838.407600 91917.924900
5480 35442.028200 90142.870800
5481 33873.436500 92267.091800
5482 33480.676400 93357.394400
5483 35765.909500 90435.937600
5484 33334.846800 92701.270000
5485 35653.134500 89949.531300
5486 33751.785500 93902.686700
5487 35527.578200 92611.828000
5488 35977.849500 90864.006000
5489 36341.732300 91409.858800
5490 36366.732000 91912.927700
5491 35678.133900 90606.498100
5492 33934.267700 92981.835600
5493 36208.956500 90958.176700
5494 34620.093100 92395.432500
5495 34089.266300 91718.740500
5496 33190.130300 93411.005600
5497 36222.844500 90854.006600
5498 34151.767800 93449.626000
5499 33626.508400 93722.124900
5500 33870.950200 94000.467900
5501 33275.396000 91170.943300
5502 35471.471200 91230.959600
5503 33671.777100 92725.716500
5504 35970.630600 92745.999000
5505 33458.724100 92104.305100
5506 35025.371200 90373.154600
5507 36188.401900 91421.524900
5508 35110.652700 94438.551400
5509 36166.180000 91144.293800
5510 33364.845500 92724.882200
5511 34710.375000 91104.010000
5512 33794.828200 92817.663200
5513 33135.688300 92650.155200
5514 34775.374800 90908.449100
5515 35260.920700 90523.160100
5516 33054.022400 93867.678900
5517 33225.128500 92574.874000
5518 36080.348400 91303.742800
5519 34062.323700 93338.787600
5520 33324.569700 93048.220500
5521 36252.848400 92802.112700
5522 35331.481100 94401.047900
5523 34585.378800 90653.996700
5524 35821.463700 90464.549800
5525 35426.467800 92389.878100
5526 35425.084400 93493.796500
5527 33916.768900 92848.220700
5528 34789.819800 90597.883600
5529 33506.506100 93021.554400
5530 33587.619500 93648.512400
5531 34732.869900 92442.934200
5532 33190.686900 93020.719100
5533 35619.246300 90088.980300
5534 35404.529300 90232.595700
5535 35678.411600 90570.941400
5536 33365.402400 93495.175800
5537 34039.266900 92277.371100
5538 35704.522000 90341.489400
5539 35641.190200 90248.707900
5540 33449.288500 93310.448300
5541 35077.030000 92604.605800
5542 36031.187500 93398.238700
5543 35522.581300 91116.512200
5544 36457.286400 91873.204900
5545 34500.374800 91552.628100
5546 36454.505600 90721.506000
5547 35751.188000 91500.690500
5548 36483.408400 94458.548800
5549 33520.391100 92355.704500
5550 35447.581100 91695.972200
5551 35368.691000 92627.661400
5552 36457.006400 90841.509500
5553 35976.192500 94398.269400
5554 35021.754000 92757.943800
5555 34686.481500 92242.371100
5556 35821.742000 91128.458400
5557 33842.606200 93162.390800
5558 34836.479300 92231.260100
5559 34619.537600 92221.259500
5560 35792.020800 91751.253200
5561 33286.229300 91584.289800
5562 35571.190800 91479.022100
5563 35995.356600 93932.419200
5564 35337.863700 90445.657900
5565 33712.329700 91452.899800
5566 35162.866700 91167.346000
5567 36334.228500 90472.606700
5568 35340.919000 90548.716800
5569 33819.839300 93894.353000
5570 34515.928300 91871.525300
5571 34856.207100 90608.161700
5572 34449.259900 92654.052300
5573 34499.822900 90865.391600
5574 33500.951400 93087.110900
5575 35966.182400 90537.885500
5576 35393.139500 91230.681600
5577 34476.211500 91018.727500
5578 35376.196000 90507.326600
5579 33835.659500 91720.685000
5580 35512.304400 90389.267700
5581 34575.929900 91460.682800
5582 33483.726700 92421.262400
5583 34061.502200 94361.040000
5584 35302.863400 91268.182100
5585 33075.962500 92334.863900
5586 36259.788700 91921.260800
5587 35323.979300 94092.983400
5588 35830.074400 90283.987700
5589 34821.757100 92162.091300
5590 34326.486300 91634.016800
5591 35777.298400 91163.737100
5592 34862.040000 90652.329700
5593 33346.505500 91198.722300
5594 36315.355300 94304.097900
5595 33699.553700 92820.440500
5596 33037.069600 92027.910100
5597 36109.239800 92827.390500
5598 35756.743100 90055.923900
5599 33263.461300 93054.053600
5600 35212.311500 90300.930900
5601 36396.731700 91982.651500
5602 34388.713800 90828.721300
5603 36043.403000 90671.222700
5604 35565.358300 90933.729400
5605 33351.514000 93295.725100
5606 33226.518500 93225.167100
5607 34713.424900 92091.255100
5608 33249.841800 91744.016300
5609 35627.579300 90617.609200
5610 33949.282100 94292.425100
5611 34552.594000 92083.476900
5612 34276.486300 92030.974400
5613 34675.092700 92304.040100
5614 35538.970500 90178.427400
5615 33819.829600 91150.112300
5616 33310.126300 93141.832900
5617 34468.711900 90955.948200
5618 33647.331700 92374.039200
5619 34189.264900 92065.697600
5620 35818.410100 92659.330600
5621 34145.935700 91176.782300
5622 33669.274200 92210.144000
5623 35620.357100 90898.450800
5624 33021.246600 93466.006200
5625 35445.360600 91231.515100
5626 33115.412800 92762.659700
5627 33140.955100 91994.021400
5628 34223.709000 92060.142000
5629 35004.543200 94410.218000
5630 34550.657300 90641.774100
5631 36288.128900 93763.249100
5632 36252.858500 94566.329900
5633 35207.030600 91614.300900
5634 35521.193100 90213.428500
5635 36024.798900 93630.466900
5636 36320.343600 91863.204200
5637 35422.023200 92462.101800
5638 36119.790800 90813.171600
5639 35771.464900 90126.204200
5640 34273.986200 92090.976600
5641 34064.544300 91756.797200
5642 34764.265300 90547.048600
5643 36141.187300 93896.029700
5644 33219.008500 91985.966500
5645 33199.842400 91965.410300
5646 34614.257700 92888.505900
5647 35511.471200 90268.430200
5648 36186.456800 92008.762500
5649 36263.955500 92056.819200
5650 35460.638400 90740.112300
5651 35837.576400 92573.773300
5652 34259.819800 91929.859300
5653 36378.124100 92986.563100
5654 34133.708500 92746.275300
5655 35210.361600 92929.613700
5656 35568.136300 90042.034200
5657 35847.296500 90061.757800
5658 35138.141200 92943.781300
5659 36234.511400 91815.425000
5660 35218.977500 90701.777100
5661 35897.573400 91909.591800
5662 35327.858500 92729.886200
5663 33582.335300 92515.989100
5664 36337.013600 93060.453600
5665 35966.738200 90036.757300
5666 35663.409900 92080.706000
5667 36294.233600 92172.376800
5668 35710.911300 92663.774700
5669 35294.251700 91491.242500
5670 34837.317800 90796.501200
5671 35198.701000 90248.707100
5672 33834.282800 93809.905500
5673 35357.307500 90519.549100
5674 35487.027100 90443.991700
5675 33408.170700 91254.002200
5676 34453.986500 91488.181700
5677 33574.560800 93181.000800
5678 36285.348000 92914.338300
5679 34983.703800 91163.179300
5680 34819.534600 91879.305400
5681 34922.311000 91874.028700
5682 35648.137100 93420.460100
5683 35518.970100 93212.676100
5684 35551.471200 93430.182800
5685 35560.360100 93449.905600
5686 35706.469400 93153.508700
5687 35530.634800 92790.721500
5688 35660.911900 92805.166900
5689 35367.585300 90417.601500
5690 35414.806300 90553.161700
5691 35377.862200 91140.401300
5692 34730.373700 91281.514800
5693 34704.817100 91481.796100
5694 34739.816900 91443.184800
5695 35296.475000 91102.344400
5696 35939.522200 93166.287400
5697 35812.579500 93147.119900
5698 35787.579200 93063.507500
5699 35934.520000 92766.555100
5700 35765.355600 92772.666300
5701 35806.188400 92784.055600
5702 35857.574700 89918.141900
5703 34879.817300 90996.507700
5704 34877.039300 90862.058800
5705 34841.484700 90996.507600
5706 33026.526300 92666.822100
5707 33104.578600 92663.488900
5708 33136.800700 92771.548900
5709 33124.300100 92666.822600
5710 33161.235900 92245.416200
5711 33171.521000 92721.825400
5712 33249.016200 92533.483100
5713 33135.411400 92709.880100
5714 33274.567600 92356.810000
5715 33096.243800 92551.539600
5716 33052.637900 92749.603300
5717 33147.633500 92835.438600
5718 33226.240200 93442.951300
5719 33232.073400 93382.949400
5720 33399.567900 93339.060000
5721 33403.456100 93175.167300
5722 34859.813200 91669.578300
5723 34965.647400 91384.017500
5724 34972.035700 91446.796500
5725 34948.146800 91510.686500
5726 34743.150700 91387.350300
5727 34909.814700 91406.240000
5728 34847.591800 91603.465800
5729 34979.532700 91782.082000
5730 33908.170400 94407.150700
5731 33679.565100 94008.800900
5732 33719.286000 94124.916700
5733 33716.786400 94056.303000
5734 33698.730400 94182.974300
5735 33607.065400 94150.194300
5736 33705.116700 94405.759400
5737 33584.288900 94031.300900
5738 33664.841300 94271.588100
5739 33720.675500 94018.246200
5740 33046.524400 93341.836600
5741 33068.191500 93185.166000
5742 34078.432800 91858.189700
5743 34123.154800 91690.684200
5744 34123.154800 91665.127900
5745 33970.934600 91585.403500
5746 33838.992900 91658.461100
5747 33457.065700 93239.057400
5748 36341.732200 91127.627800
5749 36307.010400 91032.624400
5750 36250.622400 90962.065900
5751 33550.943100 91987.635400
5752 33476.501400 92132.084000
5753 34208.431000 92337.651800
5754 34313.985500 92219.037000
5755 34243.985800 92403.487500
5756 34320.374100 92323.207400
5757 34313.985400 92264.038600
5758 34266.763300 92399.320800
5759 34349.540800 92144.312100
5760 34287.597200 92075.976100
5761 34155.098600 92195.979900
5762 34038.710600 91990.694300
5763 33814.548500 92222.645500
5764 33793.715900 92286.814300
5765 36077.572500 92605.441200
5766 36494.509700 92606.553800
5767 34452.322400 91079.006100
5768 34788.151000 91244.014400
5769 34708.703000 91871.526400
5770 34604.815700 91882.081600
5771 34658.981900 91809.579800
5772 34781.202900 91702.356100
5773 34601.482800 91811.246200
5774 35038.420100 92095.980400
5775 35045.364500 92064.313100
5776 35037.031200 92037.645700
5777 35015.920300 92002.644800
5778 35045.919900 91998.755900
5779 34935.088300 92070.978900
5780 34961.476800 92054.867700
5781 34981.476500 92070.701700
5782 34984.531800 92010.700300
5783 34902.310800 92019.032700
5784 34878.700000 91984.864700
5785 34901.755400 91969.864600
5786 34920.088400 91975.142800
5787 34994.531900 91957.087600
5788 34938.143900 91929.863900
5789 34964.810100 91945.142500
5790 34971.754700 91906.252500
5791 34906.478300 91773.469900
5792 34841.756300 92054.310700
5793 34729.535700 92073.476700
5794 33900.114000 93774.070900
5795 33952.890200 93753.792300
5796 33573.452800 93612.678400
5797 33543.175300 93553.788500
5798 33636.230200 93696.291100
5799 33642.896500 93678.235200
5800 33669.561600 93598.788900
5801 33680.950000 93580.177300
5802 33688.727300 93557.676800
5803 33663.172600 93571.010500
5804 33643.173000 93558.788100
5805 35920.351200 91128.458600
5806 35980.905500 91093.179800
5807 33550.112700 92382.650200
5808 33767.605900 92392.929300
5809 35163.978300 90847.059000
5810 33504.279600 91359.284300
5811 33459.281200 91165.666100
5812 33169.564700 91287.057700
5813 33202.897300 91259.834800
5814 33110.399900 91348.725900
5815 33051.790000 91318.169200
5816 33090.122100 91270.668100
5817 35755.909900 89982.032400
5818 35800.075300 90127.315400
5819 35778.686900 90178.150500
5820 35974.793100 90212.596800
5821 35996.737000 90247.598100
5822 35975.904200 90288.710500
5823 35465.083000 90024.533600
5824 35661.746900 93078.785200
5825 35476.470100 93078.506700
5826 35430.081300 92975.170900
5827 35474.802800 92939.058900
5828 35323.139500 93204.342900
5829 35318.694600 93135.730100
5830 35302.861800 93170.453200
5831 35360.360700 93121.563100
5832 35195.917600 92961.836900
5833 35140.093000 93921.590900
5834 36000.630300 92762.666100
5835 34452.320700 91321.789200
5836 34488.431800 91256.510400
5837 34513.985800 91537.628000
5838 34488.987100 91318.178500
5839 34238.989300 91298.730600
5840 34413.433000 91192.619200
5841 33244.008600 91790.684100
5842 33302.340000 91550.122300
5843 33299.562200 91514.010200
5844 33372.338000 91682.070700
5845 33282.618600 91739.294100
5846 33135.400300 91894.018800
5847 33248.452700 91615.123700
5848 33061.235200 91486.229400
5849 33134.020600 93512.396900
5850 33051.523100 93539.063400
5851 36281.451800 90448.160900
5852 36333.950700 90408.438100
5853 36288.395700 90265.933600
5854 33800.117500 93888.797200
5855 33995.390400 93865.463000
5856 34290.388800 94219.927200
5857 34340.386700 94086.311300
5858 34130.666400 93952.413000
5859 33901.504100 93890.463900
5860 34028.447100 94030.191900
5861 34092.888200 93851.853700
5862 33815.394700 93852.962600
5863 33907.892400 93847.406800
5864 36382.839200 90149.541600
5865 35023.420200 92390.155200
5866 35127.862200 92428.489600
5867 35062.585700 92534.603900
5868 35116.751500 92398.488700
5869 35258.693100 92360.432100
5870 35549.528400 93860.474700
5871 35404.254000 93888.254600
5872 36486.731100 92150.711200
5873 36399.787100 91929.039200
5874 33230.684300 93843.791200
5875 33225.684800 93937.681900
5876 33424.569500 93956.296500
5877 33319.571700 94027.407700
5878 33260.683500 93825.735700
5879 33316.793900 93937.683200
5880 34393.164200 94329.377500
5881 34627.327000 94369.105000
5882 34585.383600 94183.264600
5883 34228.445300 94269.650400
5884 34465.107500 94323.822900
5885 34427.052700 94305.766200
5886 34591.216900 94275.212300
5887 34608.438400 94104.095400
5888 34481.494900 94418.270400
5889 34654.270700 94053.538800
5890 34593.161100 94314.380300
5891 34512.605300 94441.604900
5892 34587.605300 94054.371000
5893 34633.430600 93673.806000
5894 34455.937200 93845.472900
5895 34546.767200 93759.083500
5896 34659.262900 93618.805100
5897 34415.372600 93492.132400
5898 34593.986400 93666.027200
5899 34503.989800 93743.526400
5900 34514.264800 93662.136600
5901 34600.094300 93520.746600
5902 34576.484500 93579.636300
5903 34520.380900 93854.919000
5904 33967.323600 91547.624700
5905 33911.214100 91430.677000
5906 33883.440900 91068.999000
5907 33777.328800 91275.116100
5908 33702.052200 91443.177200
5909 33674.277500 91108.721000
5910 34063.988900 91579.014400
5911 33927.880000 91577.903400
5912 33886.491900 91699.573300
5913 35303.697200 93464.074000
5914 35149.260400 94002.426600
5915 35199.258700 93924.090600
5916 35169.536300 93870.200300
5917 35160.924400 93777.975400
5918 35176.479500 93764.641500
5919 35055.649000 93810.477100
5920 34550.090000 93154.906000
5921 34464.256600 92972.397800
5922 34488.424900 93394.911000
5923 34462.590300 92933.507300
5924 35844.796900 90900.673800
5925 35779.798300 90742.891200
5926 35952.572000 90772.892300
5927 35952.294100 90713.723900
5928 35712.577400 91001.510000
5929 35864.240600 90609.832000
5930 35860.629600 90649.555300
5931 35893.128800 90649.277600
5932 35893.962300 90784.003700
5933 35891.739700 90407.881200
5934 36023.681300 90683.723100
5935 36181.455600 90701.779300
5936 36102.290900 90745.947200
5937 36009.792600 90627.888200
5938 36208.953300 90355.935600
5939 36052.291100 90413.437000
5940 36083.401700 90565.108400
5941 36008.959100 90532.329700
5942 36120.900400 90510.662300
5943 36028.403100 90597.887300
5944 36029.791800 90521.773900
5945 36052.568900 90440.382400
5946 34440.375700 93611.301300
5947 34115.651400 93028.505900
5948 34013.432800 93110.727300
5949 34100.930500 93121.284300
5950 35428.137300 91639.025800
5951 35282.862200 91731.526900
5952 35092.309900 91655.412700
5953 35353.694000 91744.028100
5954 35277.585200 91535.688000
5955 35553.138300 93512.963300
5956 35615.360000 93692.135700
5957 34869.536200 93205.459700
5958 34965.921500 92714.331700
5959 36146.466300 94059.923100
5960 36175.076400 94015.477400
5961 36001.745600 93951.308600
5962 36154.243500 94017.977400
5963 36145.633800 94144.092500
5964 36028.414000 94266.596900
5965 36208.408900 93984.087700
5966 36094.524500 94310.209600
5967 34386.492100 90754.275000
5968 34416.769100 90800.943600
5969 34467.601000 90925.114300
5970 34549.268700 90616.773100
5971 34635.377000 90785.667800
5972 34589.266000 90975.116600
5973 34580.655500 90794.556800
5974 34321.770300 90845.942100
5975 34387.882100 90665.383300
5976 35637.301200 90889.006200
5977 35540.359300 90427.046900
5978 35570.080500 90643.165200
5979 36044.792700 91776.534100
5980 35986.183300 92036.817900
5981 36229.233900 91764.312700
5982 36131.457900 91866.536800
5983 36138.402100 91950.705500
5984 34687.036000 92687.942400
5985 34618.426300 92487.935800
5986 34612.593000 92505.714200
5987 34687.591300 92906.840200
5988 34631.758700 92652.385700
5989 34608.425400 92661.274900
5990 34556.204200 92552.382400
5991 34608.426400 92451.545600
5992 34348.981600 92829.335700
5993 34283.704000 93165.177100
5994 34271.759500 93126.565100
5995 35936.462100 91440.134500
5996 35991.460800 91575.694400
5997 35301.469600 92642.939500
5998 35383.691100 92705.996700
5999 35167.583800 92772.665600
6000 35142.584200 92731.553500
6001 35179.250000 92725.442100
6002 35167.028000 92750.720600
6003 34710.379300 93939.092200
6004 34927.319100 93925.203400
6005 34836.767400 94191.044100
6006 34948.987100 94136.875300
6007 34770.931000 93816.312400
6008 34923.709300 94023.817100
6009 34809.267400 94000.761100
6010 34941.764500 94027.150500
6011 34892.322600 94333.548900
6012 34898.432000 94016.872600
6013 34760.657800 94177.988800
6014 34932.039300 93782.143700
6015 35711.188600 91212.627100
6016 35811.746100 93795.748900
6017 35683.133700 90262.597500
6018 34023.712500 91343.730300
6019 34037.891600 94341.316800
6020 33826.228600 93961.022000
6021 33924.282200 94310.481000
6022 33950.115100 94321.870600
6023 34151.502100 94256.315500
6024 34986.198700 92109.869300
6025 34835.090300 92551.826900
6026 34952.865800 92074.868100
6027 34978.421100 92144.870100
6028 34922.595700 90395.932900
6029 34888.430000 90351.209600
6030 35191.756600 90291.764000
6031 34899.819000 90297.041400
6032 34947.595500 90337.875800
6033 35144.809300 93191.843700
6034 35225.641200 93222.954900
6035 34918.148900 93536.302800
6036 35218.974900 93252.400200
6037 35195.919500 93217.121600
6038 35770.354500 91592.081900
6039 35870.352300 91418.189100
6040 35797.576200 91665.417600
6041 35728.966100 91425.132800
6042 35809.520200 91772.365100
6043 35777.576300 91420.410800
6044 35742.021800 91655.972400
6045 35777.298800 91618.193900
6046 35783.132100 91657.917300
6047 35607.856600 91706.529000
6048 34585.093600 92273.761400
6049 34737.592100 92369.042400
6050 34807.868700 92426.267000
6051 34710.092300 92411.544100
6052 34628.148700 92341.819400
6053 34608.426500 92118.756000
6054 34741.203000 92512.659000
6055 34841.756800 92176.258600
6056 34725.647800 92386.265300
6057 34775.369000 92186.813900
6058 34837.868100 92199.870300
6059 34785.646900 92293.761900
6060 34659.814900 92437.100600
6061 34786.480200 92360.431100
6062 34714.258900 92223.759300
6063 34789.813400 92381.820900
6064 34814.813100 92259.871900
6065 34737.592000 92484.880200
6066 34796.757800 92400.154900
6067 34826.757200 92218.204100
6068 35520.077700 92344.600000
6069 35516.744400 92383.489500
6070 35759.799600 92426.269800
6071 35532.022100 92336.544400
6072 35605.077600 92416.824200
6073 35723.688800 92460.437100
6074 35397.301400 92463.490600
6075 35737.300100 92581.828800
6076 35491.744600 92296.821200
6077 36470.900000 93536.400000
6078 36485.347800 93732.137800
6079 36218.960600 93080.731300
6080 36473.677500 93048.787500
6081 36142.573600 93255.735400
6082 36275.067700 92286.267700
6083 36312.566900 92224.044600
6084 36391.732900 92357.936800
6085 36290.345500 92365.158600
6086 36163.680800 92284.323000
6087 36205.624300 92232.099600
6088 36391.732800 92327.102800
6089 36389.788300 92306.269100
6090 36398.121500 92288.768800
6091 36222.290800 92307.101300
6092 36361.177900 92414.048900
6093 36285.623000 92265.434000
6094 36298.678300 92249.044900
6095 36286.733900 92212.655200
6096 36317.567700 92477.939000
6097 36320.067400 92405.159600
6098 35555.355500 92118.762100
6099 35465.356900 92094.594400
6100 35554.800000 92087.094700
6101 35574.244300 92141.818300
6102 35455.635600 91925.145700
6103 35465.356800 92115.983800
6104 35630.077100 92142.651700
6105 35558.966700 92057.094000
6106 34783.146900 91746.523500
6107 34783.424400 91795.136000
6108 34783.701900 91851.526400
6109 35950.077900 93357.959200
6110 36098.130100 93158.510300
6111 35945.352300 92553.773200
6112 36028.961900 92545.995500
6113 35942.574800 92612.385400
6114 36010.352400 92779.333300
6115 33700.940900 92357.094200
6116 35428.417200 90041.201000
6117 36395.897600 91047.625800
6118 36479.506200 90882.899900
6119 36353.954000 91057.903500
6120 36402.841600 90957.623100
6121 36332.008400 90759.838300
6122 36453.118100 90904.566700
6123 36432.563500 91006.513800
6124 36315.343700 91077.348200
6125 36383.674800 90875.676100
6126 35354.251400 91230.403600
6127 35073.429300 94193.820500
6128 36155.347900 92382.380900
6129 34473.981900 93468.800100
6130 34371.216800 93874.638500
6131 35887.574900 92367.102200
6132 35115.644000 93280.735700
6133 34264.820100 93461.017300
6134 34957.866200 92758.777400
6135 34999.821300 94436.052600
6136 34973.978300 92978.783800
6137 35781.746700 93501.573700
6138 36238.401600 92316.546000
6139 35719.804300 94137.426300
6140 35942.578500 93850.472500
6141 34645.925900 93339.910700
6142 35760.082000 94206.873100
6143 35620.641600 94456.048700
6144 35635.360000 93820.472800
6145 35904.243900 92997.950500
6146 34908.156100 94386.884500
6147 35622.304300 93647.411900
6148 35678.692300 93741.859100
6149 34805.101700 94270.769300
6150 35730.357000 92972.950100
6151 35354.251400 93387.404300
6152 35739.802800 93981.865300
6153 34461.211800 93712.691900
6154 35816.470700 94219.651100
6155 34790.101700 94220.212100
6156 35130.368900 93711.584600
6157 34673.702600 93072.958100
6158 34905.371700 93600.749400
6159 34537.884200 94095.482800
6160 34384.816000 93381.852100
6161 35840.634700 93601.299000
6162 36040.349000 92055.707400
6163 35976.744200 93402.127200
6164 35817.857700 93946.308600
6165 34854.545400 94312.715000
6166 34624.261600 93543.247300
6167 36245.624200 92428.493200
6168 35387.303400 92897.113000
6169 34935.376800 94225.210800
6170 35599.807000 94177.706400
6171 35297.588600 93791.863800
6172 35093.705500 93979.370800
6173 36194.513800 92382.380900
6174 35986.187500 93041.840200
6175 35691.470000 93526.574500
6176 34986.759400 93572.414600
6177 35752.580300 93145.175400
6178 34463.701300 93263.797900
6179 35680.916500 94175.205700
6180 35164.254000 93278.512800
6181 34786.761900 93571.304800
6182 34894.267900 94448.831800
6183 35825.635000 93836.583300
6184 35073.423500 93429.353000
6185 35213.422200 93634.636600
6186 35367.586200 93644.358000
6187 35820.635100 93164.342600
6188 35548.417700 93916.865300
6189 33835.393400 94389.093700
6190 34377.872000 93399.074400
6191 35874.246100 93911.307600
6192 35112.039600 94198.265000
6193 35194.255000 93493.520500
6194 34547.313700 93361.300000
6195 36109.792700 92219.043800
6196 35631.745300 92786.555100
6197 35700.084400 94476.883100
6198 35114.262000 94226.599000
6199 35535.641800 94195.207300
6200 33570.388000 91697.072200
6201 33862.055100 93499.344200
6202 34940.923200 93015.174400
6203 35826.746400 93209.343400
6204 35852.301700 93900.196200
6205 35283.696300 93298.790400
6206 35985.077500 93232.678000
6207 35837.577800 92954.616100
6208 35708.136400 93188.787000
6209 35908.687000 92758.499300
6210 35236.478500 93772.419200
6211 34263.166700 94193.536500
6212 35875.638000 94491.606500
6213 35816.746000 93693.801500
6214 34680.381900 94300.214500
6215 35097.317400 94134.930100
6216 35554.805200 93632.134000
6217 35848.412700 93361.292000
6218 35021.485500 94119.096800
6219 36083.686200 93233.234300
6220 35902.298900 92896.003100
6221 35945.352000 92487.105200
6222 34699.538800 93449.634700
6223 35644.803800 93463.517000
6224 35638.971900 94016.311700
6225 35957.573400 92218.487900
6226 35517.031900 94353.823200
6227 35959.520800 92986.005500
6228 36007.298800 93134.620200
6229 35795.082500 94361.045500
6230 34707.048600 94454.387700
6231 33721.783300 94396.870400
6232 35684.247900 93241.843400
6233 34956.479500 93157.122700
6234 35095.929500 94291.323400
6235 35729.247200 93627.966300
6236 34251.499200 94112.977100
6237 36206.190700 94427.158200
6238 35665.081300 93367.680600
6239 35927.295800 92170.153500
6240 35995.633500 93831.305300
6241 35631.748300 93401.848400
6242 35422.857800 92778.776500
6243 35059.261200 93926.036100
6244 36102.014400 92075.985600
6245 35573.418400 94143.538700
6246 35480.356400 92637.383900
6247 35340.087300 93744.639700
6248 35186.754800 93452.963600
6249 34704.814400 93133.238100
6250 36205.069500 92494.605900
6251 35548.138500 93555.742600
6252 34368.442700 94170.760100
6253 34845.929400 93785.200000
6254 35111.201200 93529.634000
6255 35861.191000 93992.420900
6256 35789.246800 93942.975200
6257 34443.979200 93210.462100
6258 35907.573200 92026.817200
6259 35160.366600 93470.186800
6260 34627.048000 93963.257800
6261 35574.252800 94303.266100
6262 34599.266200 93756.862700
6263 34874.535700 93110.456600
6264 34939.265400 94181.320900
6265 34358.713000 93688.800900
6266 34672.035600 92998.788600
6267 34587.327800 94124.095800
6268 36204.235000 92155.153900
6269 36008.132400 93186.565900
6270 35404.802700 92816.833100
6271 34701.202900 93061.568800
6272 35607.583000 93887.419400
6273 35342.863200 93453.795600
6274 34542.314900 93452.689700
6275 36232.845700 92184.321100
6276 35055.649600 93869.645500
6277 35368.142100 93694.637600
6278 35016.757300 93315.182500
6279 35939.518600 92442.104100
6280 35053.429300 94125.207900
6281 34680.094100 93445.745800
6282 35027.597200 94231.043600
6283 35282.030100 93362.403800
6284 35783.969500 93283.511400
6285 34630.649500 93474.357100
6286 34842.595300 93725.753900
6287 35783.413300 93483.239900
6288 34310.936700 93707.411500
6289 34400.646800 93231.294200
6290 36200.912700 94387.434400
6291 35063.706500 94047.428200
6292 35103.977800 93321.848500
6293 35412.579500 92654.606500
6294 35069.817900 94115.485400
6295 35510.915900 93429.349500
6296 35771.468400 93077.674400
6297 35005.925000 93466.021900
6298 34492.590200 93303.243900
6299 35150.924900 93806.865200
6300 35815.077600 92859.057800
6301 34407.877500 93648.523400
6302 35880.354200 92794.611400
6303 35118.145800 93550.190200
6304 34430.926800 93433.798700
6305 34586.217100 94239.655400
6306 34459.258300 93354.076400
6307 35068.978300 93290.180900
6308 35291.475700 93527.409700
6309 34313.442000 94030.752700
6310 35090.649000 93879.923300
6311 35117.596200 94348.547800
6312 35755.079000 92978.228200
6313 35858.415700 94437.437500
6314 35181.197900 93251.845100
6315 35895.078700 93390.182000
6316 35753.136900 94115.203100
6317 35921.466200 93060.174000
6318 34395.093100 93353.796300
6319 36000.627800 92092.930200
6320 34707.593500 93337.966100
6321 34641.771200 94428.829600
6322 35535.361800 93805.473300
6323 34572.034700 93173.240100
6324 34629.257600 93056.846300
6325 35930.078300 93311.846600
6326 35824.524300 93292.956500
6327 35648.696200 94394.657800
6328 34808.989700 94038.817700
6329 35889.519000 92251.821700
6330 34959.256800 93076.564800
6331 35640.912400 92879.335700
6332 34877.872800 93741.309700
6333 34540.662200 94160.207500
6334 35772.582900 94418.270000
6335 34618.988400 93776.863700
6336 36174.513700 92231.544100
6337 34914.818300 93848.534600
6338 34931.765900 94260.767500
6339 34396.202700 93264.628100
6340 35866.470700 94291.876100
6341 35918.963200 92327.101300
6342 34851.482300 93407.966100
6343 34539.550200 93989.645600
6344 36044.793600 92125.153100
6345 35487.029500 93827.696500
6346 35641.192700 93443.238600
6347 35292.032500 93729.917300
6348 34772.868600 92758.500100
6349 35843.135100 93883.806800
6350 34992.043100 94361.049200
6351 35675.359000 93704.913400
6352 34428.702400 93289.907800
6353 36168.413100 94404.102000
6354 35004.810200 92802.667300
6355 35817.857100 93648.522400
6356 34405.090900 93167.125700
6357 35585.917700 94057.702500
6358 34503.144900 93126.016000
6359 35344.528800 93325.457800
6360 35314.809000 93589.634100
6361 34452.595500 93546.856200
6362 34455.645600 93161.571700
6363 34889.260400 93537.969800
6364 35521.752400 94049.091700
6365 35917.852100 92297.934000
6366 36138.403000 92164.042900
6367 35440.915200 93133.507800
6368 35955.631600 92909.336800
6369 34550.661900 94306.046000
6370 35052.319700 94350.215000
6371 36062.297500 93136.842900
6372 34790.380800 94426.331600
6373 35110.091300 93696.584200
6374 34940.367100 92895.170600
6375 35122.033100 93343.238000
6376 35686.468100 92934.893200
6377 35866.745500 93530.741600
6378 35680.081200 93777.137800
6379 35914.522300 93135.453400
6380 35913.689300 93498.796500
6381 34789.813100 92833.503200
6382 35516.747000 92949.059400
6383 35602.578400 92705.997300
6384 35982.021700 93599.632600
6385 34753.158100 94236.324000
6386 35298.973800 93286.845500
6387 36169.246200 94358.822300
6388 36242.845300 92161.265200
6389 34287.598300 93508.519100
6390 35708.970000 93344.624200
6391 34946.481100 93405.464800
6392 34511.478300 93241.021100
6393 35888.134200 93473.517800
6394 35824.245900 93764.081300
6395 35730.914200 93406.015000
6396 35293.142700 93579.356200
6397 34902.589600 92859.336600
6398 35361.196800 93535.743000
6399 34356.207600 93503.798200
6400 34449.830100 94120.204200
6401 35500.636900 93215.176100
6402 35277.862900 93277.122900
6403 35607.302600 93066.006900
6404 34659.264000 93691.029200
6405 35842.304500 94394.380200
6406 35650.912600 92919.892500
6407 35587.302200 92963.504600
6408 35156.477500 93430.185300
6409 34870.648200 93322.129900
6410 34752.872400 93413.245300
6411 34693.150500 93517.691700
6412 35547.859700 93354.346900
6413 35465.913200 92829.889100
6414 35192.587100 93326.014300
6415 34474.534100 93236.019900
6416 35534.806000 93770.750100
6417 35849.246200 93339.902400
6418 35941.462000 92108.207900
6419 35531.469600 93041.561700
6420 35026.762400 93996.871800
6421 34866.766400 94070.485100
6422 35886.741800 92429.325900
6423 34934.255700 92806.556800
6424 35720.078400 92832.945800
6425 34753.435900 94271.047500
6426 35518.140900 93962.700200
6427 36177.856500 94233.539600
6428 35612.580800 93161.286400
6429 35945.628300 92036.262000
6430 35320.642800 93667.414800
6431 35947.299300 93077.396500
6432 35925.355800 93603.799300
6433 33984.280900 94382.706400
6434 36003.692000 94267.152500
6435 35573.416700 93827.418000
6436 35123.701700 93628.248400
6437 35903.689900 93254.066900
6438 35959.522000 93520.463900
6439 35449.525000 92904.057800
6440 34356.207100 93473.797500
6441 35726.191400 93755.470200
6442 33953.169700 94436.318900
6443 35576.193900 93676.302100
6444 36079.524400 94252.429400
6445 34629.820800 93745.196500
6446 34881.478400 92773.500300
6447 34886.488600 94186.321400
6448 35734.525900 94099.647100
6449 35972.297900 92883.502700
6450 35524.249800 93520.741500
6451 34734.824800 94077.152100
6452 35671.192400 93650.745200
6453 34915.371900 93658.528900
6454 34288.996700 93944.082700
6455 36100.914000 94480.494500
6456 34790.650300 93486.302100
6457 34586.212800 93845.475900
6458 34535.651100 93577.691300
6459 35020.920700 91868.751800
6460 35447.858200 91866.810600
6461 35785.075900 90660.666700
6462 36227.854300 94101.591100
6463 36356.186700 94161.593600
6464 36333.406700 93923.809100
6465 36232.857900 94513.550300
6466 36473.686400 94247.152100
6467 36301.744700 94367.711400
6468 36226.746300 94446.047700
6469 36333.411700 94518.272900
6470 36190.358600 94541.051700
6471 36447.016600 93999.645400
6472 36316.185100 93995.477500
6473 36431.462000 94047.424300
6474 36122.011700 90546.774500
6475 36092.846100 90613.998800
6476 35284.808100 91287.349100
6477 35387.028300 91286.238400
6478 35052.868700 91275.126600
6479 36183.413200 94447.159100
6480 36416.464900 94264.374700
6481 36118.691600 94461.326800
6482 36288.130400 94028.533700
6483 36375.630300 94114.092400
6484 36317.852800 94078.257700
6485 36308.407000 93904.364000
6486 36338.407000 93987.699700
6487 36239.245200 94308.264500
6488 36222.021700 94159.926100
6489 36226.466500 94191.316000
6490 36316.740400 93930.198000
6491 36423.683100 93904.364800
6492 36408.406000 93991.311500
6493 35097.308100 92147.370700
6494 35323.692400 92289.041900
6495 35025.364500 92447.379200
6496 35003.698400 92087.646800
6497 34642.882500 94201.043700
6498 36277.288800 91691.533200
6499 34828.984100 91155.123100
6500 33770.117800 94260.477800
6501 33627.886100 91905.134000
6502 35477.865300 94221.875200
6503 34406.209400 91409.568200
6504 36294.791900 93292.126200
6505 34912.321100 94121.597400
6506 34036.215200 93420.734300
6507 35425.358400 92874.334700
6508 34120.929200 93053.784000
6509 33608.722200 91206.779400
6510 36403.677400 92460.994400
6511 33780.393100 94468.817800
6512 35084.818700 94309.102000
6513 33387.625100 93832.126200
6514 36223.956600 91608.475100
6515 33674.286700 94131.305400
6516 33312.895000 91339.282400
6517 34314.552400 93976.861900
6518 35282.307900 91365.406300
6519 34074.835700 94322.983400
6520 34312.610100 94167.703100
6521 35309.806600 91567.911400
6522 33529.278600 91497.067200
6523 35742.299100 90562.330500
6524 35449.805300 90675.943500
6525 34223.709600 91521.235200
6526 34534.534500 93273.799400
6527 35831.465800 92768.221800
6528 35450.911800 92394.600500
6529 33318.450100 91937.077000
6530 36172.288600 90619.276800
6531 36008.132600 93369.071000
6532 33888.716100 93204.058800
6533 36429.520000 94231.595900
6534 36200.905400 93048.508000
6535 35093.145500 93448.520100
6536 33938.726900 94174.920200
6537 35162.589200 91067.621100
6538 35721.187000 91948.480500
6539 33835.395200 94118.528300
6540 36372.853800 94208.817200
6541 36316.180900 93007.674300
6542 33080.680400 91763.181700
6543 34077.612700 94019.914400
6544 36214.243800 94129.369800
6545 34720.646700 92007.085700
6546 36005.073000 92404.325700
6547 34486.495100 93969.921700
6548 35852.018500 90140.927200
6549 35827.297700 91723.752800
6550 33980.941900 93571.013700
6551 35378.696000 90687.332600
6552 35458.416900 90262.596700
6553 34820.927100 91404.295400
6554 34767.047900 94431.054200
6555 35838.963200 90368.157500
6556 36108.403100 91097.347300
6557 34667.597700 91104.287300
6558 35222.305100 92841.278100
6559 35928.687000 92812.111900
6560 34962.316100 93708.530100
6561 35458.138800 90520.938500
6562 33558.451800 93407.117800
6563 33198.731100 91379.838400
6564 34329.552600 94429.101900
6565 34779.545900 94049.095900
6566 35908.684200 90802.615300
6567 33178.454500 91881.796800
6568 33444.845100 93671.012500
6569 33365.671700 91491.232300
6570 33098.188100 93654.898400
6571 34832.871600 91380.683900
6572 33115.409700 93989.626100
6573 36417.851200 94056.869000
6574 35900.073000 90582.053400
6575 34157.039500 92920.725900
6576 33817.895600 94067.137200
6577 35598.132900 92065.427700
6578 36144.239100 92778.222800
6579 33856.782500 93849.073600
6580 33845.660200 92474.321600
6581 33487.340000 92955.164400
6582 36383.956000 92581.552700
6583 35134.256200 91176.513000
6584 35069.808100 92668.774400
6585 34237.054400 94070.197100
6586 36379.512000 93228.236000
6587 33955.103900 93289.895100
6588 36278.404500 93532.132600
6589 36295.618500 90533.163600
6590 34400.099000 93619.356300
6591 34015.378300 91586.514600
6592 35395.359400 92964.614800
6593 33892.880500 91788.742700
6594 36119.514300 92135.986700
6595 33584.558200 92834.329400
6596 35867.020600 92703.498100
6597 35908.693000 94396.602600
6598 34262.322000 93539.908000
6599 34216.485200 92618.494200
6600 35794.242400 90936.508100
6601 35687.581200 93819.361200
6602 34525.653400 91325.956900
6603 34237.326100 90951.776700
6604 34920.933000 94297.435900
6605 35941.739700 91548.470900
6606 35929.243500 92979.338800
6607 36263.410900 94231.872800
6608 34785.376300 93866.591200
6609 35577.579100 91725.418400
6610 35569.808700 94366.879200
6611 35262.584100 91884.031200
6612 34026.501900 93947.688700
6613 35373.968500 92562.937500
6614 36359.799000 94285.208500
6615 35319.257800 94252.154600
6616 33919.836200 94476.042000
6617 35780.352800 91958.203400
6618 33310.957800 92521.817500
6619 34034.280100 94396.318600
6620 35297.035300 94036.315300
6621 34104.555900 94468.266700
6622 36298.413200 94577.719500
6623 34990.088600 92874.336100
6624 34585.938400 93998.257900
6625 33205.675100 91286.502300
6626 35961.737900 90342.323400
6627 35698.133700 92738.498500
6628 36375.902000 93494.075900
6629 36481.460100 93909.087500
6630 34693.151700 91313.737000
6631 35309.253900 90236.206900
6632 36477.842800 92351.270500
6633 35471.472400 93466.573100
6634 35863.408100 89873.418100
6635 34070.935500 93382.122500
6636 35421.468500 92709.607900
6637 35891.470900 94406.603000
6638 35437.307300 93672.969700
6639 33405.956200 93201.001000
6640 33531.500500 91565.402200
6641 33545.666700 91626.792700
6642 35088.696300 92442.101100
6643 33844.270100 91940.414400
6644 36407.838800 90579.833600
6645 36271.179800 92535.440200
6646 35008.147600 91251.237300
6647 34872.318500 90489.546600
6648 35620.355800 92575.161000
6649 36090.903800 92124.319900
6650 33958.990400 91769.297700
6651 36278.409300 94113.258400
6652 33229.563900 91924.853900
6653 34933.700500 91719.579900
6654 33727.340100 93730.180700
6655 36193.679300 92094.319600
6656 34522.035200 93336.022100
6657 33539.282200 92822.384600
6658 35516.188900 92516.547700
6659 34535.940300 94219.098500
6660 35367.302000 92409.600500
6661 36391.729300 90730.949600
6662 35726.466100 90544.552100
6663 33778.169700 93562.677000
6664 34175.095400 93147.674600
6665 34327.869200 93056.843100
6666 34784.816200 91458.463000
6667 35223.976400 91193.180000
6668 36192.017400 93533.799000
6669 35532.308600 94220.763800
6670 36335.911200 94460.770700
6671 35445.083800 90305.098100
6672 34086.216800 90983.998100
6673 36233.676900 90726.502400
6674 35920.350000 90296.488400
6675 34208.712200 91246.784900
6676 35756.744400 92524.605400
6677 35488.138500 90250.929600
6678 34977.035300 91495.130700
6679 35736.188600 91679.861900
6680 34497.316100 92508.769700
6681 35638.412300 91265.128200
6682 36088.403000 90927.897200
6683 34119.278500 94016.581600
6684 33939.838000 94249.368000
6685 36245.063300 90319.545800
6686 36327.291300 92792.946500
6687 36109.796400 93134.898600
6688 34042.044600 91534.568700
6689 35631.466100 91947.091400
6690 35533.143100 94398.269000
6691 36153.406900 93489.075500
6692 35492.309000 94137.705800
6693 33882.603800 92607.658700
6694 35747.299500 91768.197700
6695 33207.630000 92666.267400
6696 35126.196600 92095.425200
6697 35180.363900 93157.120100
6698 36453.683400 94015.757100
6699 36001.468200 94008.254700
6700 36245.345800 92265.155900
6701 34343.707800 91902.080900
6702 36206.189400 94234.372900
6703 34228.431100 91720.684800
6704 36144.240000 93105.453700
6705 35326.748200 92228.484900
6706 34544.260900 91969.028500
6707 35195.362000 92203.205800
6708 33588.443100 91677.905200
6709 35551.192300 90106.202900
6710 35795.360900 94496.884300
6711 35200.094200 94314.379400
6712 35243.420800 91031.231300
6713 34778.980200 92212.092400
6714 34595.651000 91599.019100
6715 34103.710200 92103.476300
6716 35776.469100 93465.461500
6717 36392.290000 93369.628300
6718 36042.024800 94247.151500
6719 36062.579500 94157.426300
6720 34804.263100 90796.223400
6721 36175.067900 90895.952200
6722 33332.904800 93953.239400
6723 36278.957800 92597.108200
6724 36000.626600 90813.449000
6725 33165.130600 93884.069200
6726 35385.924200 94398.547500
6727 33357.893700 91850.408400
6728 34978.423600 91563.743400
6729 35290.639700 91770.417000
6730 35791.465300 92297.655800
6731 36107.294800 92700.165300
6732 35466.194400 90180.927400
6733 33471.229500 92777.939400
6734 36448.405300 93974.089200
6735 33362.902900 93709.901200
6736 36283.123800 92494.050500
6737 34020.948100 94242.146300
6738 36267.579300 94484.660200
6739 35333.417500 93276.011600
6740 33409.014500 93978.519000
6741 34884.256300 92235.705000
6742 35803.964400 90806.504200
6743 34117.322700 91376.509400
6744 34169.278900 94316.317800
6745 34326.765300 93550.742800
6746 34454.819100 91604.295400
6747 35951.460600 90575.664400
6748 33644.001100 93059.888300
6749 35959.794200 89972.032800
6750 33985.101000 91560.958300
6751 33843.715100 91596.792800
6752 34080.099700 91700.684500
6753 33092.344300 91210.666300
6754 34240.666500 94334.930600
6755 34883.150300 93687.419000
6756 33446.503200 92219.030900
6757 36422.020700 94453.548400
6758 33564.832000 91897.910900
6759 35233.971200 92387.655000
6760 35632.301300 90712.612000
6761 35994.247200 94175.204800
6762 35155.366200 91343.183500
6763 35925.350700 91940.704100
6764 33070.957800 91871.239800
6765 34067.320000 93091.839100
6766 36115.077800 94051.589600
6767 35190.373200 94411.049400
6768 35515.637500 93324.901500
6769 33228.175700 91797.628500
6770 35078.141600 92305.152600
6771 35801.464100 90296.210300
6772 36153.690400 94277.152400
6773 35993.406800 92520.439400
6774 35564.247200 90716.778600
6775 36229.793600 93107.676500
6776 35298.693800 92051.814100
6777 35022.876100 94381.327700
6778 36015.075900 93047.673700
6779 35635.079300 90492.049900
6780 34485.662000 94378.547000
6781 34890.927700 90792.056500
6782 35872.296700 91360.687600
6783 35491.467700 92031.260000
6784 35467.303100 92974.893200
6785 34529.547100 90591.772200
6786 35647.023400 90270.653200
6787 34505.372300 92205.703700
6788 35767.576300 90591.220300
6789 35397.306300 90996.508500
6790 35895.907300 91556.526400
6791 34565.099600 90981.227700
6792 35122.590000 91089.010600
6793 33135.686200 92497.926100
6794 36431.742600 94333.821800
6795 35171.473300 92273.762900
6796 34595.931100 91199.844100
6797 33815.383400 92709.605400
6798 34103.987300 93246.841000
6799 34847.873400 90908.171500
6800 36223.397900 90531.774000
6801 33938.448200 94357.149400
6802 34503.700400 93055.179500
6803 36308.958600 93365.183800
6804 35113.700800 91245.403700
6805 35905.359500 94319.932700
6806 35623.689800 91605.970500
6807 35528.972400 93658.801800
6808 36086.187100 93741.303200
6809 33534.001100 91356.228700
6810 35778.688600 92750.721300
6811 34382.878900 91067.060200
6812 33383.449300 92150.972100
6813 36398.953000 91007.624600
6814 34873.148600 91409.017800
6815 33039.571900 92182.636400
6816 34095.380600 91170.115000
6817 35641.745500 91309.573700
6818 35962.022400 93804.360100
6819 35064.255400 91583.744100
6820 34380.651600 92164.035200
6821 35250.926500 94317.434800
6822 33399.559600 91470.120800
6823 33856.226200 94424.095100
6824 35842.296700 90704.279100
6825 35270.085000 91639.857500
6826 35199.805400 92812.666400
6827 34786.757100 92058.476800
6828 35430.366400 94231.598000
6829 34555.378000 90821.224100
6830 34144.001600 94300.205800
6831 34250.380600 93641.298300
6832 36090.625300 91841.536000
6833 34656.488000 90732.888400
6834 34207.879300 91211.783900
6835 33455.112900 91846.797600
6836 36204.231600 90513.995600
6837 35914.239900 91825.145300
6838 35816.186000 90434.271000
6839 34252.041900 91838.744600
6840 34224.542300 91703.739900
6841 36126.470300 94546.330200
6842 36368.678300 92545.440700
6843 35440.639000 93387.959500
6844 35569.247300 90608.441900
6845 33685.114100 93346.837300
6846 33649.282800 94472.983000
6847 34312.883800 93841.858800
6848 35952.294400 90825.116000
6849 33093.460600 92268.750200
6850 36341.740100 93946.031900
6851 34576.211300 90741.222200
6852 33336.791700 93097.387900
6853 35336.201500 94173.263500
6854 34509.265500 91180.953600
6855 33196.795100 92482.925300
6856 34106.501600 94097.974100
6857 35681.473100 94349.378500
6858 35611.190900 90329.821800
6859 35830.354300 92557.939700
6860 36150.902000 90956.509600
6861 35249.254900 90710.666500
6862 33487.612100 91790.962900
6863 33358.458300 93577.677100
6864 36330.068800 93228.791300
6865 36070.069400 90747.891800
6866 35949.526000 94423.548200
6867 35190.361100 92372.932400
6868 33272.627700 92827.384000
6869 36289.236400 93236.569100
6870 33863.158800 91803.743100
6871 35673.971500 94073.535600
6872 33967.337500 94168.531200
6873 34988.143200 92584.327900
6874 35328.973000 93252.955300
6875 35546.751400 93965.200000
6876 36180.625100 92344.602200
6877 33380.948000 91970.411600
6878 33347.060400 91917.632300
6879 34783.979500 91899.861100
6880 34110.660900 90983.998400
6881 36255.354300 94130.758700
6882 36002.571600 91907.648300
6883 35743.966100 92334.323200
6884 34655.092800 92386.543200
6885 33428.725700 91324.560300
6886 33267.072500 93239.334100
6887 34362.314900 92812.946300
6888 35787.853400 90357.601400
6889 35880.073300 90167.039300
6890 35059.541000 94252.710800
6891 35635.356400 91510.690000
6892 34863.423200 92362.375900
6893 35908.964300 92631.274600
6894 35325.080100 92482.379800
6895 34266.770600 90915.665100
6896 34813.701900 92442.656500
6897 34957.032500 92427.378500
6898 36419.785300 90897.343800
6899 36403.689000 94601.887700
6900 35777.853800 90042.312400
6901 35247.305000 92291.819200
6902 33387.060000 91308.448400
6903 36050.357600 94176.315900
6904 36140.347900 92252.655500
6905 33964.270500 91198.725900
6906 36059.514800 91908.481900
6907 36458.673600 90926.234100
6908 33461.788900 93624.900800
6909 35062.870900 90230.095300
6910 34189.556100 94332.985400
6911 33875.116000 93913.798100
6912 35890.628600 90344.267800
6913 36345.345100 92479.883500
6914 36287.297500 94069.090500
6915 33294.006300 92007.634300
6916 35367.582100 92998.504600
6917 34795.096600 90991.229500
6918 35251.198200 91093.455100
6919 35190.367300 90129.259700
6920 35113.143700 93241.845400
6921 33302.626200 92954.885700
6922 34556.763700 93634.081500
6923 35961.738900 91755.699600
6924 36030.909900 93256.290000
6925 35226.472800 92124.037400
6926 35758.413400 93887.695900
6927 35386.748600 91809.030400
6928 36335.344900 92385.159300
6929 35868.407500 92117.652100
6930 35635.639600 94167.428000
6931 34135.943300 93894.911500
6932 35500.641700 94051.591900
6933 34062.330800 93689.904900
6934 35608.135200 91184.847900
6935 34881.205800 91080.676800
6936 33945.669200 93847.129000
6937 35158.696000 92187.371900
6938 35289.530400 93420.183600
6939 33757.327400 92238.478900
6940 34226.486600 91776.519900
6941 35221.473800 93113.785300
6942 35115.920300 93081.285200
6943 36115.624900 91949.872000
6944 34230.385600 93880.191100
6945 33429.842300 92695.159400
6946 35604.801800 91281.795100
6947 36193.401500 91050.679700
6948 36209.513200 92284.323000
6949 34455.099700 93680.191400
6950 35229.529300 93141.285900
6951 34769.536000 92267.094100
6952 36169.234300 90814.282900
6953 34802.874200 90908.171500
6954 34083.723800 94386.874600
6955 36477.291800 93698.525800
6956 36460.899100 92570.997100
6957 35689.525500 93572.409200
6958 35630.912100 91460.410900
6959 34403.149100 93392.408400
6960 36168.403400 92456.827200
6961 34447.329300 94374.101900
6962 35489.803600 91375.407800
6963 35719.799700 92410.991400
6964 33294.839900 91890.131300
6965 35150.641900 93094.340900
6966 35535.359200 90573.162900
6967 33821.493800 91477.622900
6968 34461.490600 90783.166700
6969 36182.572800 93404.628800
6970 36281.188800 94268.818500
6971 35705.077800 89969.532000
6972 33852.326500 92829.330700
6973 33922.879500 91930.414200
6974 36058.402100 90497.328600
6975 33121.511600 91545.676100
6976 34618.426500 92315.707400
6977 34802.044500 93960.760100
6978 35953.133600 93242.122400
6979 35256.753400 91235.125500
6980 36453.962600 94115.204100
6981 36278.675400 90662.889700
6982 36432.289100 92768.780000
6983 35360.088700 93934.367400
6984 33693.731100 94078.248100
6985 33845.659900 91481.789700
6986 35966.465700 93071.563100
6987 36187.298200 93994.087900
6988 36066.185200 92881.280700
6989 34228.431200 92003.195500
6990 33882.325800 92771.829600
6991 34585.936400 93910.199900
6992 36162.846700 92107.097400
6993 35440.637700 93190.175700
6994 35885.358900 94174.927200
6995 35648.970600 93731.303400
6996 34989.535400 93297.404400
6997 35816.463700 91909.313400
6998 35337.308800 93614.079300
6999 35550.079600 91626.248600
7000 36225.349100 92907.948800
7001 35178.972000 92449.601200
7002 35160.083600 92640.717700
7003 36261.455500 90971.233000
7004 36430.893300 90268.434800
7005 35829.796800 90404.547600
7006 34553.717000 94339.102700
7007 35248.139400 93049.061000
7008 36076.737300 91479.303400
7009 35975.914500 94317.710300
7010 35334.530400 93517.964700
7011 35178.701200 90187.316700
7012 34037.614000 94107.695700
7013 35175.087000 91548.743500
7014 33239.563500 91962.077200
7015 36245.904100 92844.891600
7016 34292.881800 90859.552900
7017 34832.318800 90605.106000
7018 36450.630500 94196.039500
7019 36316.455000 91222.630600
7020 33752.053000 93105.166400
7021 33645.954300 93958.243400
7022 33936.492200 91270.116800
7023 34646.481700 92444.323100
7024 33272.340300 91196.499700
7025 35240.643900 90113.148000
7026 33930.380000 91518.457200
7027 33801.215500 91842.911000
7028 35547.025200 91163.180400
7029 33510.116700 92831.273600
7030 35281.470000 92425.156100
7031 36362.841100 90753.727600
7032 34690.659600 94337.160400
7033 34037.043000 93085.449700
7034 35747.299000 90687.056200
7035 35115.918400 92784.332900
7036 34281.208400 91897.080300
7037 36271.740700 93866.307200
7038 33761.216200 91908.190900
7039 34591.771900 94369.382100
7040 33123.734000 91872.629300
7041 35846.463200 90101.203600
7042 35455.082100 93253.232600
7043 36213.683400 93486.020200
7044 35527.864600 94270.765300
7045 35218.699900 90118.703700
7046 36030.074400 92804.611800
7047 34311.212000 93617.687900
7048 36371.176300 91822.647900
7049 35027.587000 92326.542100
7050 35720.913400 93096.007800
7051 35647.854900 92223.209200
7052 34970.092700 91216.236300
7053 36105.635600 94332.710500
7054 35727.304400 94169.649600
7055 35965.904500 90442.049000
7056 35448.692500 93046.561500
7057 35250.640600 91736.248800
7058 35230.087000 93415.183900
7059 34995.092200 93514.912700
7060 35958.961700 91399.577900
7061 34385.374000 91950.694000
7062 36212.013400 92360.158200
7063 33622.895300 93530.454300
7064 34534.815700 93510.190200
7065 33397.336400 92016.246200
7066 35457.866300 94311.322300
7067 33387.899600 92654.046500
7068 34060.938700 91023.165700
7069 35906.465100 92821.834400
7070 34332.036300 92913.227600
7071 34826.207500 90659.274500
7072 35698.411100 91623.471300
7073 34688.709400 90898.170800
7074 36176.187000 93934.919700
7075 36186.744200 94128.814200
7076 35188.694300 92392.377400
7077 36260.912400 94423.269000
7078 36097.290600 90663.722500
7079 33942.879400 91843.466800
7080 34046.773100 93549.348300
7081 35428.970400 91687.638400
7082 35923.128200 90702.056800
7083 33252.896900 92042.356900
7084 36243.119800 90552.330100
7085 35833.693200 94313.265900
7086 33107.628200 92334.864000
7087 35082.037200 93801.309900
7088 35965.079800 94050.478400
7089 33071.790900 92031.243800
7090 34180.653900 92123.477400
7091 35981.192700 94491.606700
7092 36252.292200 92690.721300
7093 33294.562200 91180.666000
7094 35810.358100 94013.255100
7095 34182.320600 91694.017500
7096 33162.354700 93073.775300
7097 34110.377000 91759.297200
7098 33441.791500 94037.688100
7099 33094.580400 92853.771600
7100 35698.966600 90243.985800
7101 34140.379100 91270.673800
7102 35317.308100 91014.008800
7103 35870.908400 92317.100900
7104 34003.444300 93751.014500
7105 35814.527300 94495.217600
7106 35843.687100 89741.191600
7107 33595.388500 91334.561600
7108 34082.321100 92653.772200
7109 35618.968500 90475.938100
7110 35379.807700 90257.874300
7111 34278.998100 94050.752700
7112 35534.246800 91511.800500
7113 35584.531100 94444.103800
7114 35648.689800 91027.621500
7115 36157.572900 92992.950800
7116 35436.756000 94348.268000
7117 34381.497200 94365.767300
7118 35313.419900 90774.001900
7119 35650.635400 93002.672800
7120 35083.975000 92207.927700
7121 34601.204300 92413.488600
7122 36008.414300 94330.210800
7123 36153.679600 91841.536300
7124 34360.929900 91795.966000
7125 33665.385900 92288.758000
7126 34898.432300 94090.763400
7127 33893.166300 93547.401000
7128 35790.635900 93359.347200
7129 33072.634300 93393.782400
7130 35083.980000 93597.414400
7131 35562.300100 92555.715700
7132 33109.854300 93684.065500
7133 36068.403500 90955.953400
7134 34983.981900 93612.415900
7135 36267.852300 93941.031200
7136 34944.536100 93327.962000
7137 33029.582900 93071.274300
7138 36480.340400 91051.515600
7139 33612.608600 92064.583100
7140 35168.427000 94093.539900
7141 33774.005000 93682.679600
7142 34652.872700 93533.525000
7143 34907.589100 91848.194500
7144 36089.247200 94419.658600
7145 34881.212300 94418.830500
7146 35547.025500 90597.608100
7147 34880.367400 92407.933200
7148 35146.479700 90184.538800
7149 35826.464000 92171.819800
7150 36100.907100 92953.782800
7151 34840.928900 90863.725600
7152 33830.939400 93126.279300
7153 33797.062700 94060.192500
7154 34031.489300 92305.983100
7155 35581.750700 93969.366500
7156 35480.360100 90735.667800
7157 35163.145000 90935.950600
7158 34303.165500 94338.265200
7159 36252.845300 91355.967800
7160 34635.925900 92029.586300
7161 33628.997100 91931.523700
7162 33741.229900 94148.251200
7163 34944.814800 93464.355800
7164 35800.914500 94134.925900
7165 33831.782700 94354.648100
7166 35137.595100 94264.377800
7167 35937.577900 93683.523500
7168 35768.133800 92866.835900
7169 35654.799300 91910.701600
7170 34665.648400 92269.872100
7171 35202.026900 92455.990200
7172 35103.980700 90190.094500
7173 34554.823000 90715.665800
7174 35224.533000 90786.779800
7175 36067.019100 93004.061800
7176 36226.181500 92684.887600
7177 36419.511700 93413.240600
7178 35428.699500 94178.263100
7179 35958.685900 92666.275300
7180 35634.801400 90580.663700
7181 33133.184400 92404.866800
7182 35230.359500 92472.657300
7183 36429.231500 92054.875300
7184 35878.684600 90598.998400
7185 35927.294300 90359.824000
7186 34495.937500 93883.530400
7187 36071.737000 91619.307500
7188 33784.826800 91940.692100
7189 33489.278500 91854.020200
7190 33421.780600 91849.853100
7191 33743.161200 91822.354600
7192 33422.614200 91762.628600
7193 33506.222000 91982.912600
7194 33662.608200 91614.015100
7195 33631.219400 91848.743400
7196 33665.940800 91814.298300
7197 35302.033700 93864.088000
7198 35223.140800 93157.953200
7199 35401.471200 93114.340700
7200 35387.863000 93528.520200
7201 35147.587300 93223.789000
7202 35278.417300 93133.785600
7203 35292.865300 93634.635900
7204 35473.140500 93764.639200
7205 35487.861500 93547.964800
7206 35373.143200 93851.309300
7207 35878.690000 93197.398900
7208 35275.084300 93166.842000
7209 36386.176900 92199.878000
7210 35942.851800 89687.301500
7211 36137.856300 94159.370800
7212 36143.690200 94239.095400
7213 36013.412800 94066.034400
7214 35130.919300 91879.863700
7215 35250.917800 91844.585400
7216 34730.097900 90747.888700
7217 35070.642400 91879.585600
7218 35860.080700 94107.147100
7219 34933.981800 93494.357000
7220 35282.028400 91833.474300
7221 35053.979200 93393.518500
7222 35194.806900 91967.644500
7223 35141.475100 91786.249800
7224 35262.028100 91977.367400
7225 35920.359200 94267.708300
7226 35361.749000 91829.308500
7227 35446.747600 91736.251300
7228 35885.073700 91876.257500
7229 35776.464800 91859.589400
7230 36189.800200 94187.149200
7231 35032.311900 93223.234500
7232 36014.247800 94402.991700
7233 35290.640800 91470.964200
7234 35362.583500 91507.632400
7235 36027.300400 93920.196700
7236 35924.247700 94188.538700
7237 36114.246300 94259.096300
7238 35243.694800 93022.671500
7239 35779.242400 90258.708900
7240 35171.195900 92082.647300
7241 35813.686800 91535.691900
7242 36337.010800 92185.710800
7243 36412.006000 90667.892300
7244 36371.450200 90524.831200
7245 35365.363000 90612.330100
7246 36259.230400 90158.152500
7247 35503.415600 90453.714300
7248 35589.802600 90213.428700
7249 34762.036100 92472.101900
7250 35507.581900 90599.830100
7251 33014.014400 91995.686800
7252 35032.314300 90576.493900
7253 34988.148100 90852.614100
7254 34972.315000 90666.774500
7255 34940.371100 90708.998200
7256 35134.534300 90847.336700
7257 35132.034900 90444.823600
7258 35129.257000 90488.991600
7259 35080.646200 90767.333900
7260 35062.035300 90755.666800
7261 35037.591400 90804.279300
7262 35014.814300 90637.884700
7263 35009.537600 90463.156900
7264 34935.093500 90817.612900
7265 34934.537700 90773.444700
7266 34930.649300 90693.164400
7267 34962.872200 90452.878900
7268 34908.427900 90623.162100
7269 34935.371400 90862.336600
7270 35112.590400 90952.339900
7271 34929.539700 90434.545000
7272 34931.205100 91045.675900
7273 34949.537400 90790.945300
7274 34990.092700 90614.272800
7275 35074.535300 90816.779900
7276 35074.258100 90528.714700
7277 35123.423500 90612.051100
7278 35131.478900 90811.224500
7279 35086.479700 90634.829500
7280 35020.371000 90425.100400
7281 35008.147400 90789.834200
7282 35013.981600 91013.175100
7283 34938.149600 91020.952900
7284 35060.369200 90922.061000
7285 35077.591500 90495.102500
7286 35094.257500 90612.884400
7287 34949.261300 90471.490500
7288 35082.036000 90454.268100
7289 35142.312100 90633.718700
7290 34982.870500 90870.670300
7291 35071.480300 90558.160200
7292 35013.147200 90722.609700
7293 35129.534600 90577.605600
7294 35120.923400 90712.332300
7295 34972.315300 90902.615800
7296 34975.094300 90428.156000
7297 35126.756800 90928.172600
7298 34955.371200 91116.233400
7299 34929.261000 90589.827500
7300 34963.983100 90480.101800
7301 34993.425600 90835.391300
7302 34919.261800 90507.602600
7303 35148.146000 90400.655800
7304 35007.870200 90916.783000
7305 34984.816100 90452.323200
7306 35090.091700 90407.322400
7307 34912.871900 91110.122100
7308 35023.425000 90684.830700
7309 35062.591300 90619.551000
7310 34746.480900 92289.594800
7311 35120.643300 91591.800100
7312 35039.815500 90340.375900
7313 36385.908200 94135.204100
7314 35333.413600 92422.100600
7315 35166.478800 90404.544800
7316 34913.429700 90307.319500
7317 36275.900200 91524.028700
7318 34464.256500 93133.793100
7319 34633.426100 92508.492000
7320 34976.692100 109822.338300
7321 33942.806900 113174.080500
7322 33032.828500 112073.198300
7323 33498.375600 112134.317700
7324 31815.074500 112556.810900
7325 33351.986600 112586.554200
7326 32372.843200 112030.969200
7327 31558.150200 110362.580300
7328 32851.169800 111714.294700
7329 32755.893500 111670.958400
7330 33325.597800 112764.060400
7331 35401.666600 113039.081000
7332 34581.130500 113204.641400
7333 33136.441300 111873.193300
7334 33661.426200 112379.051900
7335 31967.861100 110294.517400
7336 36601.653500 112349.903600
7337 31351.490800 109886.184400
7338 33031.170200 111582.627000
7339 33932.523500 114005.774800
7340 32326.465200 109487.008800
7341 32928.952400 109827.859500
7342 32843.675800 109562.020500
7343 35147.777400 114568.298300
7344 33573.372600 112356.826900
7345 35024.187400 110680.134300
7346 33134.281000 110120.044000
7347 32758.400700 109716.191200
7348 32960.064800 111319.839200
7349 33180.612800 110186.478300
7350 35875.828500 111412.920700
7351 33784.773500 110026.488100
7352 33993.936400 110288.719900
7353 33480.598000 112187.096900
7354 33120.330300 111888.193600
7355 33435.320300 112297.933400
7356 33983.366300 112360.444900
7357 33895.604400 110173.715700
7358 32867.565200 109792.859100
7359 33211.997700 111686.244400
7360 32535.892400 112135.138700
7361 36527.222000 110082.345200
7362 32452.834800 112843.487700
7363 36154.448300 109552.607200
7364 35414.437900 114199.400600
7365 33062.286300 110742.605200
7366 32752.002000 111783.183700
7367 31887.298700 112145.684900
7368 34044.769300 110485.390800
7369 33815.866700 112580.172800
7370 33548.650400 112444.329800
7371 33336.434100 112207.929000
7372 35959.721200 110939.584400
7373 32113.689700 109921.734300
7374 36990.262100 112975.770200
7375 32058.130000 111800.123400
7376 34475.313200 109605.940500
7377 32977.839000 111517.624000
7378 33182.005200 110526.488600
7379 35652.235000 109679.275900
7380 36073.059400 109892.337400
7381 31808.412900 111989.013100
7382 33698.651700 111925.145700
7383 32796.436800 113541.027500
7384 35179.999100 114566.354100
7385 33708.363300 113821.602500
7386 36845.835100 109846.504600
7387 32755.323600 114362.166700
7388 32175.357100 109613.397700
7389 31466.765700 109690.070600
7390 31344.547100 109545.344700
7391 32028.136700 110038.679500
7392 32721.459900 109105.340800
7393 32961.173300 109895.360100
7394 33613.094200 112324.604200
7395 31685.371400 109687.013800
7396 32755.896200 111554.844000
7397 33069.781000 110017.028800
7398 32972.818500 114463.559300
7399 33031.450800 111387.343100
7400 33790.606800 109988.710000
7401 35744.460200 109076.482800
7402 33037.004200 109965.361200
7403 32677.572300 109079.228500
7404 35782.488500 113072.145300
7405 36945.542000 112526.588900
7406 32617.843400 111550.952800
7407 31556.761700 110295.080000
7408 35711.402200 109542.049200
7409 32378.669200 112872.932800
7410 33276.713500 112166.815900
7411 31733.980200 109829.794100
7412 32916.730400 109858.137400
7413 36054.427300 112139.336000
7414 35745.831300 111473.479000
7415 35522.512500 109857.338000
7416 32323.677900 112041.246800
7417 31921.742400 112043.460300
7418 32065.623200 112560.699900
7419 35369.161400 113727.164300
7420 32006.742500 111713.730900
7421 35836.949300 110392.353500
7422 33760.030700 113653.264100
7423 33983.936000 109747.043500
7424 33004.787900 110785.383600
7425 34814.196600 109864.836100
7426 31438.432500 110097.855400
7427 32368.949500 112475.420400
7428 31450.654600 109940.908600
7429 33307.272700 111720.968900
7430 35208.053400 114024.950300
7431 31994.533100 109277.561700
7432 32829.510100 109683.412700
7433 32338.684300 110239.521100
7434 31627.870300 110333.967800
7435 33016.434500 113348.799800
7436 32998.394400 109900.638200
7437 36897.207500 112742.426400
7438 36713.323500 112216.289600
7439 32103.134100 110066.180600
7440 34955.857400 110334.014000
7441 36597.218600 111074.311400
7442 32016.183900 112079.573400
7443 32509.780500 112316.530800
7444 36727.776900 110254.576700
7445 35812.506000 110195.125300
7446 33057.008500 110910.665600
7447 35189.443000 114053.006500
7448 34369.192200 112665.175800
7449 35501.962000 109528.160900
7450 32077.017600 111895.404100
7451 32578.392300 112005.691200
7452 31959.795200 112349.024800
7453 33293.379700 112175.427400
7454 32137.564200 112662.925500
7455 33334.769800 111945.698400
7456 32879.229100 111515.122400
7457 33513.373900 112359.325700
7458 34483.901000 114322.454800
7459 33362.822800 112169.317000
7460 33458.934300 111813.473900
7461 35283.899800 110965.140800
7462 33377.542100 112486.828700
7463 33493.374300 112357.936400
7464 32130.356100 110872.865800
7465 33232.548800 112047.089100
7466 35940.282100 110113.455700
7467 36416.946000 109228.712500
7468 31882.568100 112815.712700
7469 35353.912700 109053.701700
7470 32167.013900 112127.356100
7471 36352.779200 109617.886700
7472 32436.738000 111225.382200
7473 33058.106300 112047.642300
7474 33371.433100 112237.652600
7475 31601.206700 109670.069700
7476 34777.531500 109728.721900
7477 36909.429500 112758.816200
7478 36138.602900 111337.363900
7479 36111.104300 111222.362400
7480 33856.699300 112623.229700
7481 31335.380100 109948.129700
7482 35124.190700 109538.165500
7483 35896.398600 109448.714700
7484 35514.159800 113320.208600
7485 33915.868700 112135.990600
7486 36210.538200 112061.280200
7487 33306.716600 111789.581900
7488 35026.391500 114383.569800
7489 33243.661900 111858.472000
7490 32707.290800 109909.524300
7491 32721.992000 113792.148000
7492 36914.722200 111455.833300
7493 33348.097600 112677.390800
7494 31785.912100 112309.022900
7495 33531.154100 111942.645200
7496 34150.016200 114289.117700
7497 35529.158900 113425.491000
7498 31905.086500 109820.623200
7499 34268.914500 112727.122300
7500 33310.335500 110455.376800
7501 33435.596900 112461.273000
7502 31946.737900 112541.810200
7503 35457.218700 113137.143200
7504 32716.176000 111495.397100
7505 32896.175500 109827.581500
7506 35405.299800 109280.097400
7507 36100.834200 110225.960900
7508 33691.974000 113895.215700
7509 31357.046700 109561.734000
7510 33365.889100 109751.474900
7511 32239.798000 110948.146600
7512 32187.021400 110909.256100
7513 31999.527000 110286.183300
7514 31913.702800 109141.449500
7515 33990.573300 114396.342400
7516 33663.913700 114229.948600
7517 33248.663900 111634.299300
7518 32917.006400 111514.845300
7519 36149.437300 111136.252600
7520 32427.571800 110493.140000
7521 32414.794400 111156.214500
7522 36718.056800 109625.942900
7523 32751.712700 113989.099300
7524 36407.222900 109872.892900
7525 33076.722600 111739.299300
7526 32833.954600 109707.580000
7527 31429.266400 109883.407300
7528 34505.869800 109360.932700
7529 35644.740200 109095.649200
7530 34433.648500 109410.655200
7531 36022.227000 109867.336500
7532 33781.141600 113614.651700
7533 33345.334900 110453.155100
7534 32820.065400 109592.021100
7535 32963.934400 112717.942000
7536 32346.732800 112040.969200
7537 32083.410100 111488.165600
7538 32287.568300 112009.023800
7539 32267.856300 109227.559600
7540 31973.692100 111095.095100
7541 32869.508500 109542.853600
7542 35718.891500 110933.195600
7543 33422.821300 112204.041100
7544 31488.701600 111542.050500
7545 35902.511100 109165.931000
7546 32222.284400 112688.202300
7547 35325.560800 112877.405700
7548 31912.021500 111881.234000
7549 32858.104700 113213.237100
7550 35808.338500 110496.245100
7551 36594.442200 110642.362900
7552 32721.447600 111781.794600
7553 32115.071300 112035.686500
7554 32221.739000 111816.515900
7555 32383.403800 111500.669300
7556 35980.004200 110045.119700
7557 32812.565800 109633.966700
7558 32596.440400 114709.677000
7559 33406.711500 112073.481200
7560 32882.553200 111962.080500
7561 32485.057300 112516.811300
7562 33597.539300 112271.823900
7563 33181.431600 113236.019400
7564 36236.926600 112689.079100
7565 31960.903200 112584.034800
7566 36921.109700 109085.658200
7567 32849.232300 109759.247900
7568 32919.492100 112894.614500
7569 32792.283400 111614.846300
7570 31712.868300 110067.576400
7571 33493.650000 112937.124900
7572 31813.969400 111825.675600
7573 36411.925300 113325.496400
7574 35484.992500 113563.551000
7575 36279.725400 109167.877700
7576 35825.564100 109812.334800
7577 36134.992800 111239.862500
7578 32630.901400 109821.188300
7579 36223.060300 109079.819800
7580 32047.858300 110712.027200
7581 32717.833400 111926.520800
7582 33379.486100 112584.054400
7583 35387.495100 113657.718500
7584 32988.395500 111447.344000
7585 31721.193900 111905.398700
7586 32180.355000 110867.865700
7587 32347.284800 112326.806500
7588 32466.171400 112243.195800
7589 33744.474700 113752.156400
7590 32182.844400 112365.694100
7591 31410.933500 109878.407000
7592 33613.928300 112215.433200
7593 32672.825600 114146.882100
7594 33822.530200 113541.593600
7595 35605.287100 110068.177300
7596 33836.994400 109964.266400
7597 32268.672000 112738.758600
7598 33968.641200 112729.622000
7599 35419.463900 109496.494800
7600 32252.851900 109832.012400
7601 35680.573000 109052.592900
7602 32987.565900 110770.938700
7603 33776.423100 112528.504600
7604 34781.418800 110043.450400
7605 35489.439000 113200.480500
7606 34221.692700 112747.400700
7607 34872.228700 114149.396500
7608 32725.324900 114624.397000
7609 32633.105900 114714.399500
7610 35831.122500 109434.547100
7611 31940.064700 113017.387400
7612 36964.985900 112578.813300
7613 33576.971200 114241.891400
7614 32267.572700 111633.452400
7615 32879.502200 111757.352100
7616 32507.840600 111946.523000
7617 32344.510900 112014.857700
7618 33012.839500 111442.066500
7619 32985.324100 113324.354000
7620 32142.567900 112343.470900
7621 31630.641400 111809.561500
7622 31717.859400 112201.241100
7623 31858.129300 112540.699000
7624 31900.078300 111774.286800
7625 32304.234300 112025.690800
7626 33928.086600 112690.731900
7627 35291.969000 109158.426500
7628 35419.715000 113808.556300
7629 31690.375300 109132.281700
7630 32869.789400 109190.344100
7631 34483.355000 113047.690300
7632 32675.603900 114522.171400
7633 34935.859000 110042.618700
7634 31899.522100 111852.344300
7635 32698.123200 109707.577900
7636 32675.603200 114073.546700
7637 34950.005700 114139.396900
7638 32327.851900 111218.158000
7639 32824.492500 113449.913000
7640 32831.735100 110945.386300
7641 33536.442700 110394.267700
7642 36681.665300 110531.527400
7643 32859.492000 112392.649100
7644 33964.754600 112484.894000
7645 35460.277900 112722.957600
7646 31843.698600 109906.737500
7647 33712.829500 110211.767400
7648 32712.547000 114426.612900
7649 32807.566800 110522.318100
7650 32971.443000 111908.469900
7651 36083.315900 114481.919300
7652 32589.792100 109969.244000
7653 36816.653700 112601.030200
7654 31772.032900 110228.132300
7655 32973.393900 111558.736400
7656 32966.433700 112598.215100
7657 33679.751500 113944.661600
7658 34060.864400 112475.726900
7659 32256.188200 109582.286600
7660 31521.200500 111657.332500
7661 33751.418900 113769.379200
7662 31354.268900 109607.568100
7663 31643.425300 110346.467600
7664 36946.373600 112894.377700
7665 35162.790200 111117.644000
7666 33947.533500 112335.721200
7667 35304.736200 110348.740100
7668 34745.006700 114487.461500
7669 31491.487400 109422.287700
7670 34778.621000 113794.386100
7671 33865.327200 110201.215400
7672 35451.677800 110364.296600
7673 35303.051200 114139.676000
7674 36872.765300 111595.160800
7675 35761.951400 110172.902200
7676 35188.635200 109433.161400
7677 31992.860300 110354.518100
7678 32483.406300 109347.285800
7679 32250.618000 112605.977600
7680 35216.413700 109334.267300
7681 31935.632700 111780.954300
7682 32327.836200 112946.824900
7683 31592.320700 109240.616900
7684 31828.692800 111646.779700
7685 32574.498800 112525.980000
7686 31667.307200 111776.783200
7687 33740.328600 110566.773700
7688 31765.636200 112105.127200
7689 31716.473700 111646.777900
7690 33316.421500 114664.957000
7691 34188.627100 114224.671400
7692 33109.506000 111149.839400
7693 35994.427900 112198.226100
7694 32704.491700 113901.596300
7695 34033.643800 112310.443100
7696 33373.097200 112658.223700
7697 31768.977500 110202.021100
7698 32750.900800 110476.482500
7699 34080.308600 112470.171000
7700 32957.006600 109918.693600
7701 32118.966400 111321.770800
7702 32356.184800 111088.433700
7703 33087.266500 112666.831200
7704 33073.945400 111700.687000
7705 31770.090500 109808.681900
7706 36413.050600 110822.365900
7707 36260.557200 109716.222400
7708 33301.153200 112902.120700
7709 35295.285800 112707.956300
7710 35424.993900 113649.385400
7711 31884.530000 110229.796200
7712 35782.767800 114246.073000
7713 34315.301500 112918.240400
7714 33526.997500 110179.540900
7715 35086.682800 110904.861500
7716 35385.290400 110320.684300
7717 33359.485900 112757.671600
7718 32473.403200 111292.329000
7719 32917.313900 110724.248900
7720 34379.761600 109397.319100
7721 32879.505800 111567.068500
7722 32433.392100 112486.532300
7723 33201.148300 113872.430700
7724 33072.548700 112201.813800
7725 31861.197300 110209.796600
7726 32093.412700 110764.806500
7727 33001.156500 112417.375800
7728 33448.652800 112374.603200
7729 33570.316700 112427.385200
7730 31970.083400 110231.183000
7731 34346.692000 112733.511400
7732 34795.283500 114505.795300
7733 34062.527900 112821.569400
7734 33971.417100 113046.298000
7735 31366.768300 109727.570400
7736 32690.603300 114453.002600
7737 32743.125700 109138.397300
7738 34739.452100 114268.287900
7739 32845.882300 112296.534800
7740 31950.368200 109218.394800
7741 33278.107300 111669.300600
7742 33077.003100 110035.084800
7743 33261.709200 112981.289600
7744 34018.922800 112163.493200
7745 33902.529800 113299.363000
7746 34991.969000 109944.840100
7747 34419.746400 112823.237000
7748 34075.602100 110630.394500
7749 35396.938500 114259.679600
7750 34507.794000 113594.654600
7751 34603.366600 109605.108200
7752 35066.669700 114116.619100
7753 31754.258200 109748.680900
7754 32815.601200 113799.093100
7755 31894.524000 111664.559700
7756 32203.958900 112019.577800
7757 32946.176200 109253.124300
7758 31609.808100 111873.452100
7759 33247.828700 111841.249300
7760 36078.333600 110439.023100
7761 31567.309900 111772.892800
7762 33348.375100 112725.448100
7763 34802.229400 114177.174500
7764 34267.246300 112902.406400
7765 33009.787700 110815.384500
7766 33078.938300 112134.589700
7767 33356.158100 111943.476400
7768 34970.023300 110518.461800
7769 34418.356600 112917.129600
7770 32279.783400 112667.368300
7771 32303.403200 111872.074500
7772 33723.086500 113702.432100
7773 32944.767900 113503.249500
7774 32877.844000 110583.709800
7775 35283.080300 109207.039100
7776 35891.669600 110687.638000
7777 34054.754500 112323.221300
7778 34610.033600 109627.608300
7779 36802.222700 109397.329000
7780 35405.568400 110084.845200
7781 31694.805000 112007.068100
7782 32605.338200 111895.965000
7783 36137.226600 109492.883700
7784 31802.582000 111696.504000
7785 32065.081800 109762.842900
7786 33111.451300 110973.445800
7787 32896.175600 109775.359100
7788 33917.270400 109773.987000
7789 32334.796400 111062.043300
7790 32757.267900 114398.001100
7791 32881.989900 113646.587800
7792 35780.284700 110125.400600
7793 32223.676900 112330.138200
7794 32800.600200 114499.393300
7795 32038.405700 112081.240800
7796 31678.418700 111680.946000
7797 31923.686200 112213.742500
7798 31670.365500 111382.044600
7799 34095.864000 112462.392900
7800 35074.183800 110857.916200
7801 31581.205700 110142.022700
7802 32674.492500 114294.942100
7803 32432.575500 109215.337900
7804 33852.252300 113465.757700
7805 36204.171300 109135.932300
7806 32354.795600 109626.733600
7807 35937.224500 110670.971400
7808 33131.723900 111499.293500
7809 32274.791600 111960.966600
7810 36626.098500 112349.348400
7811 34965.023700 110413.459800
7812 32044.802900 109970.900900
7813 32975.896600 109366.461200
7814 33994.473500 112809.068800
7815 33742.829000 109547.311100
7816 35143.889200 114093.563100
7817 33497.262600 112427.105800
7818 33803.917000 113838.826000
7819 35094.459900 110935.417500
7820 36966.946200 109637.890200
7821 32633.664100 112855.160400
7822 34070.577200 113886.605100
7823 32726.714400 113755.202200
7824 32563.388400 112458.756000
7825 33075.878300 113222.962300
7826 32002.581600 110681.748600
7827 35490.288600 110144.569100
7828 36863.875700 112579.642500
7829 32145.347600 112141.800100
7830 33210.890900 110300.092800
7831 36036.112000 110509.580300
7832 36934.719700 110776.248200
7833 32492.569600 111255.105500
7834 32033.133400 111488.998500
7835 31479.264800 109979.798600
7836 32428.960100 111269.549800
7837 31547.588500 111733.446700
7838 32684.769400 114022.156200
7839 32035.351100 111952.626600
7840 33082.260700 114687.179400
7841 33050.594800 114644.122000
7842 36152.761400 113583.829400
7843 32788.957900 110937.607900
7844 33092.278400 111686.242500
7845 32218.132000 111130.097600
7846 32299.799600 109359.228400
7847 36804.988000 112054.343400
7848 32555.072200 110933.438000
7849 34098.365400 112269.330300
7850 32908.935400 113481.304000
7851 31379.823200 110118.410600
7852 32011.744100 111565.390700
7853 33104.211500 113139.070800
7854 32824.511000 110476.205500
7855 32060.903600 112317.080200
7856 34905.303300 110254.845800
7857 33378.379800 111943.476700
7858 32050.627300 112157.909300
7859 34238.913600 112864.349300
7860 32904.770900 112985.450900
7861 35082.246200 109630.668000
7862 32313.681900 111789.571400
7863 31811.193000 111679.558900
7864 34247.516300 113964.941200
7865 33634.194300 114117.999700
7866 32993.934100 112757.944300
7867 34811.141400 109655.665500
7868 34737.229500 114376.902400
7869 33095.617300 111232.341000
7870 32127.292400 112138.188600
7871 32256.184100 111606.506400
7872 32142.855900 110838.142400
7873 32339.516300 109753.124000
7874 35822.489600 114003.844100
7875 36996.389000 109368.998600
7876 32576.180200 111325.665900
7877 31489.820000 109989.521100
7878 32076.184100 111917.904700
7879 35660.546800 113152.980100
7880 32077.300500 111311.770100
7881 34048.922500 112148.492600
7882 33477.553600 110248.985800
7883 32533.666500 112848.211900
7884 35741.934000 112872.693000
7885 36513.056400 109473.439400
7886 36688.322300 112349.349500
7887 33070.057000 111668.463800
7888 33157.821700 113080.180500
7889 31602.308100 111894.841600
7890 32080.350400 111955.128000
7891 31612.864300 111782.060400
7892 31737.303800 112024.291200
7893 32011.743300 111637.060700
7894 34077.806100 112744.067100
7895 36839.446100 109702.334000
7896 35336.661900 114216.344800
7897 32034.518100 111907.070000
7898 33228.103200 112166.537400
7899 33175.886200 111799.302500
7900 31597.031900 111662.888800
7901 32121.185800 111683.175400
7902 31693.975800 111442.879800
7903 32996.988200 112503.767800
7904 32814.790500 109172.287700
7905 32618.112000 112114.582600
7906 34474.183100 113633.822300
7907 32315.338300 112671.813200
7908 32430.625000 111538.171700
7909 31950.903200 112598.202300
7910 31744.247800 112160.684400
7911 32295.627900 111537.614400
7912 32928.658000 112821.278700
7913 33183.106600 111919.584300
7914 32726.178900 110482.315400
7915 31722.305800 111772.895000
7916 33117.554900 111746.244500
7917 31798.967400 112300.411500
7918 34165.304800 112729.344600
7919 32839.771000 113322.963600
7920 31371.490100 110036.742700
7921 35309.439600 114089.952700
7922 32155.067300 112368.749500
7923 32765.047800 113622.141600
7924 35298.621500 110989.307900
7925 35603.624000 109745.389300
7926 32523.960500 110207.304900
7927 35123.902700 111031.530500
7928 34170.019800 113846.049000
7929 33131.997500 111840.692200
7930 33606.987100 111843.198300
7931 35288.352800 109685.670100
7932 32608.957500 109538.126700
7933 32878.937900 113099.899400
7934 31990.072100 112343.747000
7935 31668.138600 112123.738300
7936 32396.448600 112496.532100
7937 32076.196200 109324.783800
7938 35499.454400 110405.686600
7939 33414.212300 111943.477200
7940 36943.057700 109709.001600
7941 32948.398600 109230.346000
7942 32707.846300 110682.322700
7943 35565.003900 111054.030800
7944 34718.340500 114487.183600
7945 36850.000600 109425.663600
7946 32563.390600 112212.918300
7947 33358.936900 111832.361900
7948 36649.443100 110429.303400
7949 31902.583000 111060.648800
7950 36863.610200 109102.601800
7951 35117.791400 111093.476500
7952 32796.712300 113881.595800
7953 34910.860100 109951.505600
7954 31966.189800 111552.611400
7955 33838.915700 113886.882900
7956 32046.739000 112057.907100
7957 31705.638000 112030.957800
7958 35653.607100 112138.498800
7959 32241.191300 109095.058000
7960 32015.349600 112290.412000
7961 36230.539200 111973.500100
7962 31759.248300 111924.288600
7963 33611.426900 112427.108400
7964 35344.438900 113884.113700
7965 33566.150200 112409.606600
7966 33552.539700 112367.104700
7967 35893.337200 110374.019800
7968 31957.305600 110342.018400
7969 36065.006800 109218.711500
7970 35738.044800 114397.466200
7971 32552.849400 109335.897800
7972 32003.962900 111921.791700
7973 34703.346200 113611.324200
7974 35761.935700 112264.058600
7975 36189.434900 111393.754500
7976 33424.484500 112867.954400
7977 35394.451500 111108.199300
7978 35848.877300 112255.726100
7979 32658.123200 111404.559500
7980 34471.967700 112890.462000
7981 32363.409500 109288.672200
7982 32893.677700 109202.844700
7983 33494.486900 112110.983600
7984 33668.371700 112192.377700
7985 33528.653600 112013.203000
7986 33407.544500 112104.593300
7987 33485.876400 112044.870300
7988 33452.265600 112115.705400
7989 33600.040100 112164.875600
7990 33050.045300 113277.130600
7991 33564.208900 111974.313100
7992 33588.931700 111859.031900
7993 33833.333300 111950.833300
7994 33387.545800 111992.089500
7995 33379.212300 112042.368800
7996 33534.209300 111985.424400
7997 33390.323700 111972.922200
7998 33605.595000 112231.267000
7999 33481.154600 112009.035700
8000 33502.263500 112286.544900
8001 33462.541900 112316.267800
8002 33565.873200 112284.601700
8003 33376.156300 112102.092800
8004 33656.706600 112051.816500
8005 33719.485200 111882.644500
8006 33655.039500 112098.485000
8007 33604.486400 111923.200700
8008 33576.431500 111902.088800
8009 33531.986700 112040.981700
8010 33468.654300 112090.427000
8011 33571.153600 111917.367000
8012 33539.763000 112231.265900
8013 33422.269000 111759.027200
8014 33393.656700 112009.867900
8015 33628.930100 111964.868800
8016 33715.874000 111899.867300
8017 33243.098300 112999.067600
8018 33454.489700 111840.696900
8019 33606.151700 112079.039200
8020 33593.929600 112097.928700
8021 33580.041300 112049.315700
8022 33451.709200 112256.821000
8023 33377.269200 111887.086100
8024 33513.097100 112211.820300
8025 33380.601000 112065.425000
8026 33541.152100 112199.320400
8027 33667.817800 112025.148800
8028 33492.819900 112195.152800
8029 33389.490900 111905.420100
8030 33434.768500 111775.139000
8031 33415.879600 111853.474500
8032 33360.323500 112089.592200
8033 33556.151900 112188.209100
8034 33477.544200 111910.421600
8035 33573.652200 112092.094900
8036 33642.541100 111951.812900
8037 33558.930000 112132.651700
8038 33639.207600 111979.035900
8039 33703.371300 112165.710400
8040 33478.375900 112154.318000
8041 33645.871800 112239.601300
8042 33692.816500 112111.819200
8043 33540.319300 112127.095700
8044 33314.770200 111950.698200
8045 33231.989700 112387.100800
8046 33423.656300 111968.200300
8047 33383.935100 111958.477300
8048 33456.990000 111781.250700
8049 33615.040600 112062.927600
8050 33454.211500 111909.587900
8051 33544.763400 112167.652700
8052 33616.983900 112188.210000
8053 33233.386200 111671.522100
8054 33484.210600 111925.144300
8055 33605.596700 112020.148200
8056 33483.376900 111985.701700
8057 33504.209300 112063.204400
8058 33502.820600 112034.036800
8059 33495.876400 112015.425000
8060 33661.981900 112341.272600
8061 33211.162300 111875.416600
8062 33674.483100 112147.931500
8063 33648.650000 112189.043800
8064 33604.209000 111888.199600
8065 33424.212500 111887.364600
8066 33293.105500 111821.527100
8067 33371.158000 111920.142500
8068 33554.208500 112046.537600
8069 33416.990100 111923.476700
8070 33394.489600 112056.258300
8071 33527.819800 112085.705300
8072 33571.986300 111997.925000
8073 33570.319200 112064.871800
8074 33498.097200 112252.377000
8075 33657.260200 112278.214200
8076 33459.211300 111929.310800
8077 33670.317200 112080.984400
8078 33531.987600 111904.033000
8079 33642.819200 111928.756700
8080 33448.930800 112342.379800
8081 33350.324300 112019.589800
8082 33383.380300 111870.696700
8083 33658.372100 112170.154400
8084 31913.688800 111799.287600
8085 32207.021000 110875.366000
8086 31973.413800 111282.323600
8087 32141.188800 111028.427000
8088 32196.187800 110939.257300
8089 32201.187900 110812.030300
8090 31769.522400 112410.415600
8091 32353.129500 111025.654400
8092 31702.306500 111749.560700
8093 35943.040900 112185.725100
8094 36628.599100 111654.325500
8095 35528.326700 113231.315900
8096 36815.543200 111637.661200
8097 35060.573700 110815.971100
8098 35697.769400 112546.013300
8099 35434.730800 110844.583300
8100 36996.654000 111490.160000
8101 34162.803800 112844.903900
8102 34141.694500 112689.899100
8103 34550.858300 111864.595700
8104 36170.835200 109946.506100
8105 36565.278500 109217.879100
8106 36184.725800 109442.883000
8107 36812.779400 109890.117000
8108 36005.562200 109555.662100
8109 36705.000000 109046.486600
8110 35547.798100 109105.093200
8111 35756.124400 109425.657300
8112 36052.785700 109110.653000
8113 35475.577300 109127.593300
8114 36604.445100 109060.653100
8115 34286.153900 109355.369200
8116 36228.612400 109894.560500
8117 35702.509100 109938.172500
8118 36237.781800 109128.710000
8119 35812.511700 109462.047500
8120 36579.167400 109224.268300
8121 31916.751500 109958.958400
8122 31739.256200 110198.132800
8123 32410.350400 110312.580900
8124 31558.428000 110339.802500
8125 31882.032900 109653.399200
8126 31982.860600 110123.403200
8127 31550.095300 110271.468800
8128 33618.108300 110396.491100
8129 33640.885500 110607.329100
8130 33714.770800 110978.450100
8131 32957.285300 110355.091900
8132 32984.228000 109932.305000
8133 32875.065000 109740.636500
8134 33718.919300 113767.434300
8135 35591.935700 114273.293200
8136 35040.003900 114121.897000
8137 35222.220700 114561.909700
8138 34308.348300 114052.166600
8139 35044.445300 114623.021400
8140 35100.833300 114621.355200
8141 36726.094400 113341.895300
8142 34561.129100 113351.868800
8143 36090.541500 114098.017400
8144 36415.814900 113066.597100
8145 36775.278900 110009.009800
8146 35410.290500 110061.789000
8147 34919.192300 110151.787800
8148 34096.434800 110503.170700
8149 33798.106500 109930.375900
8150 34928.081100 110136.509800
8151 33785.329000 109956.764900
8152 34910.581400 110165.677000
8153 34980.580000 110058.175200
8154 35435.291400 109904.006800
8155 35040.297600 110742.358700
8156 32734.770100 113702.422500
8157 32818.933100 114485.504000
8158 32727.825100 114700.788300
8159 32552.013700 111303.442200
8160 33012.833200 111834.301500
8161 32587.287600 111629.288700
8162 32504.513800 111263.439500
8163 32733.678800 110647.044200
8164 32875.885100 112048.749700
8165 33177.271200 112080.700500
8166 33143.672700 110899.277400
8167 32264.802000 109083.391200
8168 35875.281200 110620.414500
8169 34901.964200 112446.838000
8170 31678.977500 111061.757900
8171 34825.298700 111436.536900
8172 33848.107600 109143.132500
8173 31604.535200 110878.142500
8174 31707.865800 111064.535900
8175 33799.754300 113182.413400
8176 35195.566800 111304.038600
8177 33415.048500 111549.577700
8178 34408.371200 110430.955300
8179 31574.812100 111332.320800
8180 31727.309700 111061.202600
8181 34453.360600 111918.207900
8182 35225.011400 112484.067500
8183 34616.412500 111914.320200
8184 33845.046900 110969.007800
8185 34272.264000 109914.829600
8186 35238.065700 111833.497400
8187 33332.000600 110943.447200
8188 34070.866500 112150.714900
8189 35570.279400 111275.701500
8190 31447.876200 110306.747000
8191 33610.055200 109106.739600
8192 33619.221900 109083.127800
8193 34196.696800 112355.722000
8194 34200.864500 112152.937200
8195 34332.261900 110147.892300
8196 33911.705600 111816.813000
8197 34436.143000 111046.798800
8198 31542.872200 110514.526100
8199 33822.261100 111918.203000
8200 33703.387000 109153.130500
8201 31587.312700 111052.868200
8202 32577.572600 110844.547100
8203 31389.262200 111250.650500
8204 32291.462300 110379.522100
8205 34471.971600 111996.543700
8206 33412.555000 110814.832800
8207 35234.456400 112025.163500
8208 33389.782000 109047.013100
8209 34588.080200 112041.823600
8210 34151.141500 112393.223500
8211 34757.522700 112453.780900
8212 34771.131900 112057.936700
8213 34361.705500 110295.396100
8214 34521.969900 111818.482700
8215 34278.640900 112232.939800
8216 33050.896600 109296.182600
8217 34554.469900 111312.916900
8218 34039.485600 111186.796700
8219 31852.306600 110974.812500
8220 34303.362800 112166.826600
8221 34332.251300 112120.436200
8222 34717.798900 111921.543800
8223 34091.714700 109203.694200
8224 35275.288400 112349.341300
8225 35205.568600 111474.879000
8226 34842.520800 111430.981400
8227 33911.716700 109345.084700
8228 34205.585700 112338.499100
8229 33352.834800 110652.605300
8230 35248.900200 112404.343300
8231 34530.025300 112241.273900
8232 33377.833600 110817.054800
8233 34981.407200 112376.282000
8234 34361.973400 111978.487400
8235 34573.920600 110804.851800
8236 34111.158100 109291.475000
8237 35211.400500 111613.216300
8238 34163.642500 112255.163000
8239 33047.007500 109318.683100
8240 34717.802500 110966.801600
8241 34960.573600 112602.675600
8242 35242.511100 111567.938300
8243 31659.812800 110525.356500
8244 34606.968400 112404.056600
8245 35198.067100 111651.272500
8246 33259.499400 111337.071700
8247 34565.579600 112495.725600
8248 34235.034800 111348.191800
8249 33636.710500 111674.582600
8250 34140.308600 112366.555900
8251 35141.679200 111694.327900
8252 34078.651400 111186.519300
8253 34101.705300 111279.855400
8254 34443.080700 112548.505200
8255 33394.222300 110786.498400
8256 33458.936700 111487.354600
8257 33674.492600 111150.123300
8258 34695.579000 112409.335000
8259 33439.213600 111684.303400
8260 33651.160200 111049.007900
8261 31763.975200 110750.083400
8262 34189.766900 109403.702100
8263 34010.047700 109458.701400
8264 34475.580700 112431.279200
8265 31658.978900 110647.304000
8266 33642.275800 109323.968900
8267 34743.354600 111407.368500
8268 33460.601800 111692.915100
8269 32042.580600 110546.745000
8270 31467.318200 110707.029000
8271 34583.645600 109408.157800
8272 34431.426200 110594.013500
8273 31857.862200 110788.695900
8274 32571.184500 110738.432800
8275 34266.139900 112382.944900
8276 33583.103000 111355.407200
8277 34500.858900 112237.384600
8278 34913.905800 111727.101300
8279 34080.045000 109905.381800
8280 33412.554500 110883.445900
8281 34584.746000 112569.894800
8282 34010.596100 111319.299900
8283 34748.910700 112113.771600
8284 34529.748300 111283.749000
8285 34521.691100 112462.946700
8286 34566.415600 111142.913600
8287 34417.525100 112712.121800
8288 34325.313000 111094.298000
8289 31610.642800 111670.944900
8290 34163.932300 109989.552200
8291 34632.244900 111777.928200
8292 34154.488000 109973.440500
8293 34909.187400 111447.093600
8294 34313.641700 111715.424800
8295 34653.077800 111732.649900
8296 34285.040500 110157.058400
8297 33394.777600 110820.944000
8298 34598.636100 111229.026900
8299 31335.656600 110623.970900
8300 32448.131600 110755.095400
8301 34520.859400 111329.583300
8302 34141.433500 109777.045700
8303 34631.690700 111260.972800
8304 34618.359300 111092.635800
8305 34397.805400 112236.273400
8306 34638.078300 111817.095900
8307 33557.275200 110679.830100
8308 34073.656400 109857.047200
8309 34296.138500 112491.003900
8310 31990.082400 110435.353100
8311 33399.221700 110868.723200
8312 34620.023400 111891.541900
8313 34553.079700 112476.002800
8314 34163.363400 112407.390600
8315 33078.673500 109365.351400
8316 34616.975000 110787.629800
8317 35085.292400 111665.992500
8318 34457.531700 111000.965000
8319 34945.574000 111640.155100
8320 31438.432300 110248.968600
8321 31340.377500 110934.253200
8322 32285.066400 112148.747600
8323 33953.106000 109209.247800
8324 34515.302300 112444.612900
8325 32315.619800 112245.693600
8326 31434.260800 111253.706400
8327 32610.905400 110770.934800
8328 31530.647400 111014.811300
8329 34390.871700 110553.179100
8330 34767.519900 111893.488600
8331 33404.771100 111538.466200
8332 31999.526200 110580.078900
8333 35260.566400 111948.774300
8334 31539.537800 110756.196300
8335 34885.575700 112468.227100
8336 34172.251500 112484.615500
8337 34230.868400 111325.135500
8338 34901.686400 112191.276500
8339 33376.167300 110753.719600
8340 34384.473900 111455.140700
8341 34307.539700 110251.505400
8342 34125.877500 109937.605600
8343 33056.451800 109332.572400
8344 34450.859700 112269.330000
8345 34471.413700 112487.392000
8346 34430.025900 112414.056500
8347 34540.024200 112468.502500
8348 34610.024300 112315.721000
8349 31609.810300 111497.048600
8350 35414.728100 111915.994700
8351 33872.265600 111313.187000
8352 35532.501000 112190.722100
8353 33450.331800 110824.555600
8354 33183.393300 110997.614100
8355 33733.374500 111844.865700
8356 34825.574100 111816.544500
8357 33229.779300 111209.289900
8358 34010.313600 111955.707900
8359 34359.483800 110090.669200
8360 34968.076700 111470.705900
8361 33667.548400 111134.289300
8362 34000.605100 109267.306100
8363 34295.873900 110093.168200
8364 31461.204400 111237.594900
8365 34276.137700 112610.729900
8366 34109.482200 111353.746200
8367 31957.581800 110955.646000
8368 32599.793300 110630.928900
8369 31482.313600 111415.934800
8370 34409.760600 110116.781700
8371 34869.739500 111760.989600
8372 33756.717400 110512.884000
8373 35239.456800 112273.228000
8374 34406.149700 110072.891700
8375 34505.302400 112685.454100
8376 34513.369800 110078.449100
8377 32427.020200 110741.204800
8378 31679.533700 110655.359400
8379 34146.698200 112267.107900
8380 34196.432200 109887.327500
8381 34133.379900 109285.919600
8382 33740.330200 109327.025300
8383 33183.394800 109457.855300
8384 34148.374200 111032.349500
8385 34255.035100 111258.467200
8386 34781.409900 111512.649500
8387 34407.806300 111493.475400
8388 33550.610400 109318.134800
8389 33864.208600 111467.634900
8390 31433.987300 110405.081000
8391 33476.989900 111714.582600
8392 33293.945000 111096.230500
8393 34863.908400 112099.884200
8394 34794.742400 112046.825700
8395 34465.037400 110091.226500
8396 33854.773200 109314.249200
8397 34316.146000 111132.076400
8398 33526.436500 111389.852300
8399 31464.540500 110729.251400
8400 31612.590000 111045.923800
8401 34428.088100 111022.631500
8402 34660.579200 112414.890600
8403 34393.082100 112416.834500
8404 34257.542900 109692.878000
8405 34571.138600 111068.190100
8406 34213.639300 112535.727900
8407 34455.859000 112378.222100
8408 34343.914800 112622.396800
8409 34283.082700 112548.505800
8410 31382.043500 110691.194400
8411 34424.473800 111267.635900
8412 34556.690900 112449.613200
8413 34731.968800 110960.412700
8414 34516.696700 110988.465700
8415 34425.858600 112586.839800
8416 35249.456600 112191.003100
8417 35243.067800 112135.445400
8418 32388.686300 110698.701100
8419 34670.021700 112863.239000
8420 35205.012200 111408.209600
8421 33924.202200 112113.212100
8422 34101.431800 110963.735800
8423 34577.255800 110378.178900
8424 31390.375700 110878.419400
8425 31363.154900 110810.084600
8426 31725.087500 110880.086900
8427 31495.925200 111279.818800
8428 31471.482800 110976.476900
8429 33423.658800 111629.579700
8430 33421.436100 111710.692700
8431 33611.710500 111717.361300
8432 33423.658000 111735.693300
8433 33420.880900 111654.024600
8434 33420.881400 111581.245200
8435 33419.491800 111689.858900
8436 32505.555600 110921.111100
8437 32297.853000 110918.703700
8438 31965.360000 110775.640200
8439 31854.251100 110993.701900
8440 32254.520100 110842.865100
8441 31977.304300 110704.527000
8442 32299.797200 110953.427200
8443 31834.251700 110732.860800
8444 31950.082100 110925.367100
8445 32320.352900 110889.537100
8446 32251.742300 110737.305600
8447 32259.242300 110858.699300
8448 34625.307400 110833.186500
8449 35238.901100 112114.333500
8450 35302.509200 112385.453200
8451 34338.928400 110799.847700
8452 34584.470800 111130.413700
8453 34628.363400 110796.519100
8454 35241.956400 112065.998500
8455 35240.567600 112044.886600
8456 34570.858500 111305.417100
8457 34343.084600 112100.713400
8458 34520.858500 112296.553100
8459 34590.857600 112355.721900
8460 34307.807400 112103.491200
8461 34364.749400 112376.833300
8462 34536.135300 112566.283500
8463 34568.080000 112375.166700
8464 34503.359900 111970.709700
8465 34568.080100 111847.095500
8466 34613.356900 112554.061000
8467 34180.585500 112402.112600
8468 34584.746400 111860.151600
8469 34702.800600 112572.395200
8470 34523.079800 112509.337000
8471 34345.028800 112159.048600
8472 34695.023000 112556.561300
8473 34574.190600 112508.226000
8474 34607.800700 112799.625200
8475 33879.217700 109272.303800
8476 33991.717100 109145.357800
8477 34028.380700 109456.757100
8478 33928.940400 109060.631800
8479 31386.211700 110288.135000
8480 31379.267700 110153.411000
8481 31483.430800 110254.802600
8482 34263.929300 110900.959800
8483 33694.494800 110813.167700
8484 33721.719600 109281.190200
8485 33188.950700 109382.575600
8486 33730.331400 109056.183400
8487 34340.040300 109949.554100
8488 34355.317700 109995.944600
8489 33298.665600 111289.570900
8490 34360.310400 111184.300200
8491 34349.755000 111198.467000
8492 34269.479500 111225.133200
8493 34329.755800 111190.411000
8494 34285.589400 111295.135200
8495 34336.143200 111296.802500
8496 34317.532700 111292.079900
8497 34371.142100 111283.469200
8498 34315.310300 111334.581100
8499 34366.975000 111358.749000
8500 34065.316700 111356.245800
8501 34183.091700 111340.413200
8502 34313.091100 111104.020300
8503 34358.922900 111094.576300
8504 34329.758500 111011.241000
8505 34293.092300 111067.630400
8506 34942.519400 112247.389800
8507 34960.296800 112287.113100
8508 34438.915000 112354.610300
8509 34867.239800 111805.434500
8510 33818.933900 111270.407500
8511 33850.599500 111306.242200
8512 33866.710400 111293.464300
8513 32410.353500 110732.036800
8514 33868.650500 111828.756800
8515 34690.299500 111905.709800
8516 34739.743000 111996.267600
8517 34677.244400 111950.155000
8518 35192.510500 111737.107900
8519 34731.965600 112026.546200
8520 34823.077000 112443.503600
8521 34538.081100 112121.547900
8522 34363.639400 112201.827800
8523 35227.233300 112572.956600
8524 33430.332700 110764.553600
8525 34063.363400 112582.396500
8526 35973.595400 112126.556900
8527 34254.208400 110029.832700
8528 35744.729200 110220.681700
8529 32835.343500 110332.311800
8530 33626.968900 114438.008100
8531 33569.479500 113352.140300
8532 33630.587000 113767.710800
8533 36002.209100 114068.293600
8534 36924.168200 109603.722700
8535 35333.329400 114588.856300
8536 34945.854800 111492.928400
8537 32554.497400 114784.957700
8538 32486.999600 114782.179600
8539 32221.742900 110926.479000
8540 32122.300700 110844.531500
8541 34560.579600 112569.617000
8542 33448.377100 112074.037300
8543 35881.391800 110714.027400
8544 36322.492500 110949.311200
8545 33466.711500 111864.031100
8546 31950.638900 110452.575700
8547 35876.392200 110640.414800
8548 36899.421300 113932.743300
8549 34142.543800 109960.384300
8550 32697.547200 113953.542700
8551 32410.350800 111017.323700
8552 34853.059800 114584.408500
8553 35751.122800 109624.551400
8554 34966.669100 114568.575000
8555 34942.780500 114590.797800
8556 35499.454300 110448.465300
8557 35751.398300 109847.891500
8558 33831.711100 111294.575000
8559 33349.499800 110992.615400
8560 32437.848400 111315.385000
8561 34780.297000 111762.653500
8562 34553.899600 114372.456900
8563 32657.826500 114411.890100
8564 35223.331200 114223.010800
8565 35096.958100 111692.660200
8566 32345.906900 111246.214600
8567 32037.848700 112320.968900
8568 35818.060400 110534.579200
8569 34911.947500 114606.631400
8570 34690.023000 112541.005200
8571 34373.365600 111175.689100
8572 33723.654000 111676.249800
8573 33601.439000 110999.839200
8574 33622.271900 111003.450500
8575 34283.372200 110948.183300
8576 34270.873700 110884.015000
8577 33867.258100 112146.823500
8578 34397.252500 111270.691300
8579 34378.642500 111224.301100
8580 33799.482800 111978.759900
8581 33770.316700 111969.592300
8582 33798.094400 111949.314500
8583 33756.151200 111900.423200
8584 33632.820200 111848.198500
8585 33667.541700 111865.421500
8586 33714.763500 111853.477000
8587 35253.646000 113984.951000
8588 35261.570000 114011.279000
8589 34219.409000 114198.243000
8590 34710.499000 112011.516000
8591 32534.722200 110873.611100
8592 33191.100000 111528.000000
8593 31947.509300 110288.949800
8594 31405.261900 109917.975200
8595 31392.437700 109580.425800
8596 31352.647000 109526.546200
8597 31906.811800 110228.281500
8598 31550.363300 110217.145400
8599 31895.285500 110990.904200
8600 32450.934400 111219.164300
8601 31937.799400 110971.093800
8602 32230.770200 110829.276500
8603 32220.023100 111030.693000
8604 32295.412700 110975.582900
8605 32307.418200 111031.373800
8606 32165.436400 110787.802900
8607 32181.667200 110804.566000
8608 32196.978600 110994.096600
8609 32162.253100 111014.593400
8610 32249.704600 110889.504600
8611 32157.902700 110945.583100
8612 32114.529000 111052.992000
8613 32267.696700 110921.269100
8614 32100.804100 110837.956500
8615 32324.398900 110981.695100
8616 32201.094900 110967.171400
8617 32400.809200 110975.042700
8618 32140.557100 110894.429600
8619 32155.616100 110925.824800
8620 32111.620600 111027.526600
8621 32084.441500 110959.666900
8622 32190.374000 111098.056000
8623 32179.675200 111121.537200
8624 31385.199800 110952.172900
8625 32665.777000 114429.190200
8626 32711.013600 114654.580000
8627 32697.086100 114545.016600
8628 32672.391600 114450.619300
8629 32664.009400 114480.410100
8630 32677.468800 114627.036300
8631 32725.550500 114514.766700
8632 32721.276000 114665.977900
8633 32686.155200 114601.313400
8634 32450.900000 111194.700000
8635 32144.526400 111110.321700
8636 32321.276900 111040.119400
8637 33364.646000 111461.565000
8638 31708.711000 110350.209000
8639 38174.639800 121278.558800
8640 37394.662600 121959.125200
8641 38324.080400 122488.036600
8642 37998.256200 121283.558100
8643 38444.630600 121943.022000
8644 37743.817500 121662.728500
8645 37904.370100 122525.530600
8646 37366.051300 121827.175600
8647 40594.851300 124255.055800
8648 39388.500200 121405.242400
8649 37754.373100 121370.777300
8650 39582.660900 122045.811600
8651 41317.345100 124041.182400
8652 38132.695000 121870.792700
8653 40275.976900 123636.420600
8654 37287.998500 122032.181900
8655 38345.194000 122973.887800
8656 38208.250300 122306.084400
8657 40469.306400 123799.762800
8658 38401.300700 120505.758500
8659 41443.779300 120870.244200
8660 36501.340000 120316.266600
8661 38707.681200 122048.026600
8662 40537.357000 124060.603900
8663 38533.246000 123085.280000
8664 41529.060600 120173.278100
8665 36733.839400 119497.907100
8666 38633.515700 121971.357800
8667 40994.569900 124112.011400
8668 38420.465100 121527.177200
8669 38654.904300 121052.443900
8670 38190.751400 121088.276700
8671 36721.339200 119609.857100
8672 40473.484300 122475.844100
8673 37904.925200 121147.442000
8674 36518.283400 119719.024400
8675 36644.682000 121664.390200
8676 38216.860100 122139.690600
8677 36869.398100 121400.490700
8678 37419.659800 120667.420700
8679 38266.582900 122656.930900
8680 37393.824400 121071.597600
8681 40313.767100 122071.661200
8682 39087.117800 121086.614900
8683 39716.822100 123353.347600
8684 40652.089700 122944.747400
8685 40027.959200 120103.816100
8686 38453.803000 123055.001300
8687 36940.505800 121410.490400
8688 38885.177300 121969.690800
8689 38682.681700 120847.714600
8690 40736.238500 124174.226400
8691 36547.449600 119791.250400
8692 38982.394900 121767.467200
8693 38932.674800 121345.509900
8694 37076.334100 120192.948700
8695 38503.796600 120755.489100
8696 40965.682600 124035.619600
8697 37826.871100 121144.107100
8698 38015.200700 122688.596700
8699 40222.922000 123643.363700
8700 38379.077600 121454.397300
8701 40700.703100 122638.351200
8702 40785.406600 124085.336800
8703 36987.727400 119711.811800
8704 40100.144900 123795.029000
8705 40056.267800 122150.268800
8706 38707.687000 122902.496400
8707 37108.280400 121986.626500
8708 38761.013200 120884.660300
8709 36773.005300 119411.515100
8710 37948.535400 122524.697900
8711 39074.338300 121893.858300
8712 38765.744700 123528.065100
8713 38829.067400 122193.863300
8714 40020.167300 121071.903100
8715 36879.393200 120763.796100
8716 36531.615900 120098.205800
8717 38100.753100 121305.503400
8718 39329.056100 121533.856400
8719 38368.244400 121517.454300
8720 40505.428100 122541.679900
8721 38349.080300 120513.536800
8722 38094.921600 120869.937100
8723 38666.575600 122819.715000
8724 38413.800500 122546.093500
8725 39321.014900 120428.815300
8726 38908.786700 121792.744500
8727 40761.242500 123994.777900
8728 38799.623800 121718.297000
8729 38352.414900 122815.269400
8730 36936.618700 121864.677400
8731 36880.502200 120110.440100
8732 37663.543300 120463.528900
8733 37116.613600 121966.347700
8734 40396.008600 120526.057800
8735 39865.707100 123714.188400
8736 38190.750800 122256.082300
8737 36700.505700 119681.249200
8738 38092.976200 120134.353900
8739 40588.206800 122305.838700
8740 37352.163600 122086.073200
8741 37715.762600 121381.610200
8742 38659.354000 122871.661500
8743 41051.007800 120475.505400
8744 38679.348300 121968.302300
8745 40851.792900 124162.285600
8746 38286.302300 122106.913000
8747 38549.076200 122720.265300
8748 39276.276800 122191.366000
8749 38752.404500 122614.985300
8750 40549.319500 122175.278600
8751 36723.839100 119458.183000
8752 37139.666100 120274.343000
8753 40234.586400 123823.645700
8754 37532.991900 121920.236300
8755 38300.470900 120706.321900
8756 36996.339100 121896.068300
8757 38228.250900 120540.759900
8758 40266.252400 123870.314600
8759 36741.346500 121765.783000
8760 39151.842600 123541.955500
8761 36683.283100 119385.679000
8762 38903.230500 121577.738500
8763 38436.854900 122402.200700
8764 37081.614200 119298.735900
8765 36999.670200 121526.328700
8766 36634.394300 119754.862200
8767 40443.762800 122407.507800
8768 40475.150100 122618.070200
8769 39356.279600 121279.127300
8770 41286.789600 124059.793700
8771 36544.949900 119287.338400
8772 36678.265700 118044.254800
8773 40563.763100 122238.891600
8774 37481.604300 122264.411300
8775 39884.599400 122545.832300
8776 41123.457000 124156.737500
8777 40335.435000 121914.989900
8778 36566.349600 121946.622300
8779 38299.637600 122666.653300
8780 39291.000200 121793.306200
8781 38852.121700 121169.392600
8782 40209.031700 123785.866000
8783 38834.900100 121014.387800
8784 38431.855100 120571.871900
8785 38823.788100 121483.845500
8786 38615.183700 122427.757000
8787 38046.309700 122183.300500
8788 40595.128900 124279.778800
8789 40081.545300 122170.547800
8790 40798.509100 120365.222500
8791 37477.159900 122221.354600
8792 39441.000100 123690.569200
8793 39265.444900 123204.449600
8794 38423.246200 122788.045400
8795 39493.775100 121744.697800
8796 36851.335100 120055.993000
8797 40495.137100 123992.823000
8798 36970.784300 121874.122600
8799 38870.176600 121706.353200
8800 38888.232200 122237.474900
8801 40890.134800 123584.493300
8802 38013.256200 122663.873100
8803 37196.056100 122145.520000
8804 37941.313300 122484.973900
8805 37973.533600 121695.508800
8806 39616.013700 120427.154500
8807 40482.357300 124100.880800
8808 41840.405600 123192.548900
8809 40599.316500 122491.957100
8810 38430.743300 121300.227300
8811 38979.617900 121375.511400
8812 39589.625600 120367.430100
8813 37426.051000 121975.237300
8814 37370.772100 120676.308800
8815 37659.930000 121002.712100
8816 37507.159100 120044.899900
8817 38028.256400 120506.587700
8818 37871.038100 120433.251100
8819 37018.278900 120310.451600
8820 37134.944200 120492.129100
8821 39301.830700 122489.152200
8822 37128.281500 119694.313500
8823 37519.102800 120437.415100
8824 39323.237700 120379.925100
8825 36964.391900 120653.239000
8826 38535.185200 122224.975100
8827 40454.025500 124053.656800
8828 37900.481600 122644.426300
8829 39907.660600 121528.027500
8830 37847.426300 121185.775100
8831 37403.827200 120594.918100
8832 38246.307000 122905.551800
8833 37690.485400 121747.452700
8834 38910.730100 121525.237000
8835 38291.025100 121311.060000
8836 37156.057200 121844.120000
8837 37595.833300 122019.166700
8838 39164.612900 122910.551500
8839 36618.839700 119489.849600
8840 38317.972100 122924.163500
8841 39932.936000 122053.874500
8842 40018.499900 121105.515300
8843 38442.965800 120630.762800
8844 40567.075300 124201.719900
8845 39037.396800 120972.442500
8846 40321.806900 123921.706300
8847 41035.958300 124111.179000
8848 37549.376000 121199.103600
8849 40023.755700 123943.083200
8850 40629.322000 121916.661200
8851 40400.147300 123054.189500
8852 41902.388500 120358.288600
8853 36749.394900 120639.066100
8854 39457.943100 121467.744900
8855 37867.147700 121638.006900
8856 34958.585000 118148.685700
8857 35237.739700 119003.158200
8858 34557.772100 115744.441100
8859 35747.176900 117395.335100
8860 33920.293300 117446.435400
8861 35547.733500 117927.568800
8862 33812.795300 118263.960400
8863 35264.981400 116074.457100
8864 33594.466700 117891.723800
8865 33982.235600 118118.124600
8866 32649.783200 116243.906800
8867 35326.363500 120835.178500
8868 34624.159100 117206.988200
8869 33835.572100 118176.735300
8870 32693.663800 115337.207700
8871 32658.950600 116100.848600
8872 34519.997300 115512.766200
8873 36431.061000 119797.914300
8874 34201.115600 118598.142400
8875 35308.850200 117968.403100
8876 34561.385300 115544.712000
8877 35650.788800 117661.730000
8878 36326.894900 119335.671600
8879 33660.853300 115721.379500
8880 33827.515400 118379.796200
8881 34471.387700 117171.708600
8882 33777.795200 117773.942700
8883 34214.460000 114215.782400
8884 34028.344400 118390.355300
8885 34935.253700 119615.127900
8886 34863.318700 116888.092000
8887 33858.348400 118064.787100
8888 36267.996900 117591.734800
8889 35978.286100 119000.100500
8890 35247.187600 119595.400400
8891 33712.519100 115402.205200
8892 35891.619600 119047.324000
8893 34031.125400 117107.534100
8894 34138.896800 118213.962400
8895 33963.346100 118018.121000
8896 33920.294900 117278.651800
8897 36471.616100 119122.330100
8898 35598.011600 119208.162700
8899 34240.559800 116438.904700
8900 32684.218300 117246.147300
8901 33953.623900 118003.675900
8902 35383.292400 119083.159000
8903 35299.960200 118911.765800
8904 34888.590400 120314.880000
8905 32997.542000 115071.915800
8906 34109.453700 118239.240700
8907 34919.164600 115062.754100
8908 35297.193700 116913.925300
8909 35268.850000 119002.880100
8910 36213.005900 119640.960400
8911 35589.676700 118960.375200
8912 36329.672400 119609.849900
8913 33817.237500 118010.617400
8914 33704.740600 115634.433000
8915 34178.337800 116308.066700
8916 34016.678100 117980.065000
8917 34934.702500 117199.212400
8918 34815.540300 117193.377900
8919 36402.172200 119809.025200
8920 33800.852800 114766.353000
8921 35665.231500 117873.124800
8922 35646.899100 117812.567400
8923 35340.543300 115310.543600
8924 32617.562600 116189.739000
8925 35372.740600 117634.782300
8926 34830.262000 117180.322000
8927 36065.785900 119107.049300
8928 36487.157600 117873.969400
8929 35012.488400 115653.607200
8930 32708.108500 116997.248700
8931 33944.181300 117486.437200
8932 32809.495900 116512.517100
8933 35094.689000 119109.551100
8934 33838.351800 117145.588700
8935 34266.114000 116393.070300
8936 34618.321000 118288.133000
8937 36357.727400 119064.548900
8938 35936.613600 117906.740800
8939 34744.426400 120278.211400
8940 33968.346500 118070.622800
8941 34721.100400 116160.011700
8942 32668.948500 116289.740000
8943 34004.733500 118430.911500
8944 33900.017600 117255.039600
8945 33895.015600 117490.881000
8946 35305.520100 119622.623900
8947 35107.465500 118914.266900
8948 35063.855700 118970.102300
8949 35032.761200 116471.413800
8950 35303.848500 118457.863300
8951 33752.239800 118326.182900
8952 35438.851700 119690.127700
8953 35223.573000 118842.320300
8954 33917.517100 117157.812600
8955 33959.736100 118326.463800
8956 34506.384700 117358.657700
8957 35516.347000 119290.943500
8958 35466.653200 115272.209800
8959 34956.922400 120444.608400
8960 34228.337000 118536.752500
8961 33465.863000 116098.892200
8962 34002.232700 118483.690600
8963 35419.680200 119057.046500
8964 33836.126800 117846.168200
8965 33046.153400 117234.758100
8966 34598.881300 117334.213400
8967 33987.512500 117884.783500
8968 32583.666800 117084.194700
8969 33432.807000 114732.181400
8970 35266.906000 119056.770700
8971 33760.575600 116737.796400
8972 35785.787100 117363.390200
8973 34156.673700 116496.126300
8974 33948.901100 118445.633100
8975 35717.732600 119328.723400
8976 32604.782200 116613.073100
8977 35303.584400 120376.547400
8978 33210.039700 116516.683500
8979 33020.321100 117202.813000
8980 34763.872000 117969.790500
8981 34083.625200 114849.691800
8982 33525.304400 114656.068500
8983 36301.339000 119117.606300
8984 34719.429100 118005.624700
8985 35359.127600 117887.567100
8986 36020.520700 120905.182600
8987 36128.854700 121020.467200
8988 35643.858700 121190.753300
8989 33642.246000 116181.116600
8990 35389.973400 120609.057000
8991 34271.669400 118708.979700
8992 33109.209900 116673.076300
8993 32902.269100 117099.754600
8994 34026.400300 118372.021500
8995 36485.783200 119223.167600
8996 35655.246500 120375.432500
8997 34151.117300 118449.248200
8998 35973.017900 116271.138700
8999 36466.053600 118645.927800
9000 34864.701900 120291.545600
9001 34135.280800 116090.281300
9002 33890.016000 116684.182200
9003 34416.385100 118452.305300
9004 33846.682900 118310.350600
9005 36130.226500 118818.149500
9006 36182.728800 119080.381800
9007 34163.893200 116247.231700
9008 34266.946600 118302.300000
9009 35848.299300 116226.412700
9010 34510.547800 118355.357800
9011 34150.280000 116054.169000
9012 33640.301300 116139.448500
9013 34040.008500 118579.527200
9014 36455.228700 119484.847100
9015 35762.732200 117372.834600
9016 34252.225000 118288.410500
9017 36224.117300 119103.438500
9018 35839.675200 119084.825200
9019 33953.625500 118163.681200
9020 33805.016300 118351.184200
9021 36138.562100 119509.567000
9022 35697.191100 120693.504600
9023 34148.340800 118273.408900
9024 33959.734900 118400.632200
9025 36226.619500 119994.859500
9026 36400.506600 120139.035500
9027 35462.205500 115476.106100
9028 33058.652600 115448.318300
9029 33990.982000 118300.095000
9030 34667.766100 117825.619400
9031 33315.312000 115603.322700
9032 33929.737000 118168.125400
9033 33097.543500 116645.575700
9034 34904.984900 116820.312700
9035 36325.505500 119082.327200
9036 38618.820000 119519.490000
9037 38514.911200 119476.832900
9038 33831.128000 116231.395800
9039 36901.341800 121605.221800
9040 37806.592100 119895.457500
9041 39283.229100 120913.555400
9042 37599.936900 119001.242400
9043 34077.510400 117689.777600
9044 36010.245000 121238.535900
9045 37647.430400 119718.500600
9046 37271.335100 119534.027700
9047 37356.887500 119607.091200
9048 33565.038000 117727.116000
9049 41985.165100 120321.900100
9050 38354.913300 120591.872900
9051 37495.494100 121989.405300
9052 38835.183200 123052.779300
9053 36569.656000 117963.140000
9054 38429.077100 122248.029900
9055 38032.698500 122075.241800
9056 38096.585600 122103.021200
9057 37764.650100 121165.217500
9058 36815.223700 119969.877600
9059 38454.632200 120530.203700
9060 36588.003300 116943.112300
9061 40443.509500 120451.611400
9062 38052.977900 121013.829800
9063 37699.098800 118764.019000
9064 38351.299800 121822.738800
9065 39157.391900 121590.243800
9066 36800.780900 119868.761000
9067 39097.948300 121624.965700
9068 36952.446400 120201.834500
9069 38585.739400 120934.384400
9070 41279.339700 120310.779900
9071 38677.682300 121802.464600
9072 38335.745700 121417.173900
9073 38214.916800 122332.752300
9074 38390.743200 122024.134900
9075 38294.359900 120913.272600
9076 38350.744300 121758.292100
9077 38047.423100 120690.763700
9078 38845.176600 121538.569700
9079 38202.418300 120508.535900
9080 36700.783300 119717.639900
9081 38336.024400 121159.390000
9082 37731.040100 121359.665500
9083 38741.846900 120870.215400
9084 38076.863500 121849.958000
9085 37856.593100 120946.047300
9086 38677.126400 121673.016300
9087 37216.611000 121740.504300
9088 38243.247000 121855.238100
9089 40724.620500 120370.222200
9090 38344.636000 120961.329600
9091 37119.113100 119982.106600
9092 38224.636400 121897.461500
9093 38401.299900 121256.892700
9094 36552.989800 117945.361400
9095 38285.468200 121816.626400
9096 37264.943100 121818.007200
9097 38956.564200 121101.058000
9098 36750.228200 119492.907100
9099 37462.716500 119774.606600
9100 38080.196900 121732.177000
9101 40138.475600 123997.256300
9102 37892.981600 120846.878500
9103 37598.267300 121945.236900
9104 39236.566700 120736.602100
9105 38131.309400 120634.651100
9106 37237.169100 119775.154200
9107 40415.428900 122534.456200
9108 36837.727600 119709.586700
9109 38581.578800 123121.392500
9110 38901.565100 121181.615800
9111 36722.172200 119717.918200
9112 38204.918300 120987.163200
9113 36896.060800 119729.866700
9114 38417.131300 121946.910600
9115 39042.673900 121094.947700
9116 36692.170600 119198.171000
9117 37934.368700 121427.170900
9118 41913.489900 121423.046100
9119 40300.709200 122326.947300
9120 40674.065000 120404.111900
9121 38228.803800 121601.065400
9122 39497.387300 121387.465200
9123 38070.198600 122538.589900
9124 36721.338400 120256.552100
9125 37180.219200 120968.256400
9126 39989.882300 121541.084200
9127 40524.044300 121957.216400
9128 39291.557000 121477.465600
9129 36721.894600 119636.525200
9130 38192.693600 122068.021700
9131 38671.571000 121894.411400
9132 37529.381400 122063.573700
9133 37432.712300 121099.932300
9134 36928.563600 121705.225900
9135 39316.564700 120811.051600
9136 36795.216700 118584.821400
9137 39921.814800 123898.635800
9138 40157.369900 123460.858700
9139 37835.205700 120507.698200
9140 39590.161100 123777.794700
9141 38676.570700 120875.771200
9142 38002.700700 121250.224100
9143 39279.611300 123234.450700
9144 37369.941300 121995.792800
9145 39189.334200 122423.592100
9146 36623.561500 120406.275400
9147 40382.677200 120387.163400
9148 36609.122500 120916.573600
9149 38012.143400 121851.346100
9150 38600.182700 121552.456900
9151 40013.765100 122553.335200
9152 38307.967700 121758.847000
9153 36982.450500 122143.300400
9154 38198.528200 122436.644800
9155 38139.639200 121907.182800
9156 38217.416700 122373.031600
9157 38776.017700 122821.938100
9158 37714.651800 121558.003100
9159 38109.088800 122845.548400
9160 38425.746600 122848.048100
9161 38036.866200 121278.280400
9162 37143.542000 118243.711100
9163 40674.316100 122460.567600
9164 36732.737000 121596.611100
9165 38957.119800 121033.277800
9166 37635.210000 118744.572800
9167 38586.016600 121971.079800
9168 37011.057500 120119.054700
9169 38358.246000 122334.976100
9170 36890.781900 120690.460500
9171 37939.923900 121568.840200
9172 36596.899200 120833.514400
9173 36546.061500 120487.942700
9174 41676.272900 121254.150300
9175 37183.555900 121706.336600
9176 37980.757300 121047.996500
9177 36530.796500 121145.197800
9178 41074.063200 120469.394300
9179 38870.180600 120626.038300
9180 36746.613500 119899.594900
9181 37814.094900 120272.690700
9182 41109.889100 121106.638100
9183 37670.208600 121859.122900
9184 39972.373000 123447.243100
9185 38148.254600 122883.050200
9186 38330.192000 120631.041200
9187 38961.006400 121544.405000
9188 38206.025900 121875.238300
9189 38503.518100 121559.956600
9190 37263.276600 121876.342700
9191 39364.333000 121608.025400
9192 40269.596700 122556.399000
9193 38238.525900 121560.509300
9194 36970.782000 121419.101700
9195 38380.190300 120532.704100
9196 38466.574700 121656.347200
9197 38246.027000 122439.701500
9198 38151.029500 122447.755100
9199 37098.001000 120129.890800
9200 39345.718600 122428.873700
9201 40632.636200 123877.270800
9202 38038.531300 121960.238600
9203 39964.873700 123358.352200
9204 38090.474200 121872.736700
9205 37611.877700 120135.183900
9206 37609.374900 121264.383700
9207 38446.301900 122861.382000
9208 37198.833400 121721.614900
9209 39876.541300 123443.908000
9210 38197.139500 122277.472100
9211 39342.390500 121333.017500
9212 38651.857000 123399.175600
9213 37946.311900 121848.567800
9214 37361.880900 121045.763000
9215 41905.434700 121409.712500
9216 41573.781000 120436.342000
9217 36524.656900 117903.970800
9218 37934.370000 120739.931500
9219 40063.477000 123963.640900
9220 38050.200300 122759.433700
9221 36551.894700 119359.008800
9222 38265.190700 122005.521200
9223 38057.143400 121276.891500
9224 41936.822500 121451.380100
9225 38157.973700 121271.614100
9226 38295.467800 121965.242700
9227 37630.763600 121287.162300
9228 37732.429900 120596.590200
9229 37940.478700 121812.733400
9230 39885.427100 123911.135300
9231 38627.127200 121092.167100
9232 37632.433100 118812.352100
9233 39039.338700 122419.699500
9234 36503.839200 119683.189200
9235 38367.136100 122714.154200
9236 38244.359000 122106.912400
9237 38188.531400 119204.597400
9238 39058.506900 121138.283000
9239 37944.647100 122706.374800
9240 40548.194000 123824.488400
9241 40205.424500 123491.971600
9242 35036.372400 116379.744200
9243 33118.093700 115255.811200
9244 34942.778600 114824.415200
9245 35042.762500 116027.509800
9246 36047.726600 117223.390000
9247 34686.649000 120592.669200
9248 35272.182500 118626.202400
9249 35787.190200 120939.073800
9250 35326.626000 118739.815800
9251 34435.275100 117835.618400
9252 35614.962400 119867.912300
9253 36036.063000 119511.233200
9254 33221.150900 116334.177400
9255 32957.268700 116925.583500
9256 34873.875600 116193.347800
9257 35773.562600 117850.070200
9258 34674.711400 117345.603200
9259 35806.634700 121090.471200
9260 35383.571800 119251.220500
9261 36342.451400 120102.921500
9262 35053.031900 120596.281600
9263 34128.904700 114411.066400
9264 35096.634400 118297.579500
9265 34931.089500 120511.833600
9266 33293.088700 117361.982900
9267 35723.855600 120296.538400
9268 36288.577000 121152.697100
9269 33698.908600 117793.665300
9270 34453.597800 120454.883800
9271 35099.982400 116273.352200
9272 35047.206100 116165.570300
9273 34635.554000 115348.038300
9274 32600.336200 116841.132300
9275 34164.738100 114301.062800
9276 33732.243100 117011.969700
9277 34602.213200 117631.167500
9278 35992.453100 119042.879900
9279 36250.799300 121138.807200
9280 33176.427400 115508.597800
9281 34734.704800 118424.803400
9282 34315.278900 118914.820500
9283 36369.949900 119134.552000
9284 32908.381300 116926.138500
9285 35191.635600 117576.724600
9286 33901.959800 116545.568800
9287 34983.597600 115869.725600
9288 35311.072000 119091.493500
9289 35508.583600 121022.687900
9290 35500.789800 117948.679600
9291 34803.877200 116452.524400
9292 36098.007000 119643.737400
9293 36284.950700 119287.891300
9294 33952.793900 117058.085600
9295 35667.454700 119191.217800
9296 34940.001300 114792.470100
9297 35312.459600 118693.981500
9298 33195.314700 115404.427500
9299 35271.097800 115449.436700
9300 36073.834300 117512.840500
9301 35670.797700 120081.808500
9302 34966.376100 115806.667500
9303 35398.850200 119447.338900
9304 34900.557800 114766.913600
9305 34920.812700 117468.665100
9306 34647.760800 120526.277400
9307 36051.342200 119232.054100
9308 34727.767300 116313.351200
9309 34196.671700 119099.826600
9310 34558.050000 117306.434800
9311 34586.933400 118304.800400
9312 36018.563900 119027.601700
9313 36257.728500 119287.335500
9314 36342.727900 119154.274800
9315 36094.397200 119232.054300
9316 34367.223800 117342.268200
9317 36037.452300 118991.211400
9318 34143.338800 118757.034200
9319 34981.928600 116594.195300
9320 35939.967100 121119.084400
9321 33728.354000 117146.420900
9322 36325.783300 119105.383700
9323 33021.430200 115108.305900
9324 35158.300400 119522.621300
9325 34276.675000 115170.256700
9326 36046.057500 117460.894600
9327 35180.242900 119198.720200
9328 35389.432100 115264.431300
9329 36094.119900 120003.468700
9330 33751.409900 116278.341600
9331 34810.535700 120598.781200
9332 34774.426200 118148.128600
9333 36123.841000 119328.447700
9334 32816.989800 114838.850500
9335 34122.502700 115795.272200
9336 35142.742800 118494.809000
9337 36181.895400 119420.674400
9338 34471.938300 118180.907900
9339 36081.903100 120480.433500
9340 32945.326300 116712.521700
9341 35298.862400 120402.937500
9342 34759.711100 116355.298000
9343 33464.197500 116913.913300
9344 34664.990400 116151.954900
9345 34438.606200 118225.353700
9346 36449.949900 119188.165900
9347 36305.228400 119242.889400
9348 36422.171900 119144.275000
9349 35552.752200 116189.185000
9350 35252.739000 118879.543500
9351 35373.848300 117989.236700
9352 33837.517800 116443.345500
9353 35398.016100 119290.944100
9354 33985.293000 117361.155600
9355 34439.717300 118314.801100
9356 35479.957000 118212.576300
9357 34459.432100 120358.211900
9358 33199.206800 116598.629800
9359 35015.263400 115942.784100
9360 36451.898100 116503.659500
9361 35483.848500 117635.338300
9362 35601.902600 119508.452300
9363 36427.449600 119117.051700
9364 35351.356600 119987.080600
9365 35701.344000 117498.948500
9366 35548.848200 117451.444600
9367 35741.635300 116222.243800
9368 33878.073500 114795.243600
9369 35127.743700 118413.972600
9370 34673.041600 118131.739300
9371 34754.425500 120611.003600
9372 36417.728100 119253.446200
9373 33598.359800 116418.346200
9374 34343.332800 117982.288700
9375 33167.815000 115342.758800
9376 35312.459700 118409.806000
9377 33848.351700 117253.927700
9378 35585.529800 116124.739200
9379 35310.793800 119054.270000
9380 35197.462700 118537.866200
9381 33808.350900 118234.792800
9382 35004.412900 118949.546100
9383 35468.582700 120379.046400
9384 35704.119900 118834.259000
9385 36052.451300 118937.042400
9386 36114.673900 119045.658000
9387 35703.009600 119169.272500
9388 41061.827600 121633.876400
9389 41121.277500 121144.139600
9390 41271.270600 121894.164600
9391 41095.721400 121183.029400
9392 33232.812800 117393.650300
9393 34030.565600 118463.412900
9394 33440.026900 118499.245900
9395 34429.442200 119753.471500
9396 34190.837900 119241.498400
9397 34438.053200 119740.693300
9398 37426.606600 122041.072500
9399 37811.872100 122294.969600
9400 38091.030100 121687.732100
9401 38116.029300 121681.343400
9402 38519.073400 121520.511200
9403 38201.305100 121513.286100
9404 38639.909900 122874.439100
9405 37795.760200 121863.567500
9406 33675.854100 117759.775600
9407 33787.794800 117809.499500
9408 34344.441400 119418.173200
9409 34866.923800 120522.667200
9410 34050.007800 118953.707900
9411 41591.785000 124095.353600
9412 34508.046600 119291.502800
9413 34846.365700 119149.552600
9414 34828.866400 119042.881500
9415 34817.478100 118996.490600
9416 38424.909500 121473.287100
9417 38345.744700 121639.678600
9418 37040.223700 120153.501400
9419 37386.328700 121860.510400
9420 37432.439100 120097.955100
9421 40599.854100 124124.774800
9422 39361.285400 120860.777200
9423 38399.078600 120527.426000
9424 34648.597400 118377.024500
9425 35179.975200 120731.841800
9426 34048.347400 117230.873600
9427 32741.719800 116911.413700
9428 34992.476500 117541.723500
9429 35470.260100 115544.997500
9430 34234.448700 118878.707600
9431 33144.489300 116134.173600
9432 35665.786400 118290.357900
9433 35119.966400 118374.248900
9434 35926.615500 118499.253400
9435 39264.895400 123591.122400
9436 36146.608100 117975.913100
9437 38038.254900 122537.755800
9438 37063.281500 119360.960900
9439 37884.924800 122076.074400
9440 37876.591600 122051.073600
9441 33744.461300 118387.017300
9442 38183.806900 122591.372300
9443 38344.911700 121535.232200
9444 38425.464900 121552.455600
9445 37726.042500 122449.416000
9446 37709.376400 122438.582900
9447 34080.840100 118687.030900
9448 34107.506600 118629.252200
9449 36977.989700 118253.432100
9450 41193.780000 120945.245000
9451 37365.498200 119726.266700
9452 40218.207700 122666.677600
9453 39469.618500 120843.279000
9454 40217.385700 121174.129600
9455 39206.565200 120811.326800
9456 41278.208300 122302.232500
9457 36631.336700 119013.162400
9458 36903.002700 119123.171300
9459 39183.778400 122704.433500
9460 41257.660000 121821.107300
9461 37324.666500 119566.253900
9462 40640.707100 122232.503100
9463 37819.099000 118476.509400
9464 37800.210300 118529.010700
9465 41020.713200 121911.107000
9466 41595.425000 122405.018300
9467 39257.122500 120711.046000
9468 39291.559200 121194.678900
9469 39473.221700 121269.128300
9470 37812.704400 120064.351800
9471 40809.026800 123474.208500
9472 40081.270700 121551.085800
9473 41309.588500 122801.417700
9474 39666.291100 120439.655800
9475 40025.715700 121723.035300
9476 41818.767400 121543.604700
9477 39226.851200 120081.858700
9478 39699.888400 121178.292700
9479 40919.049900 121547.760900
9480 41912.097300 121642.773100
9481 41709.289900 123450.334700
9482 37262.168700 119700.983400
9483 37820.759400 120027.684300
9484 39322.679700 120570.208900
9485 41111.550700 121564.708700
9486 41211.552600 121374.426600
9487 38004.089200 120108.241100
9488 41357.928300 122383.347900
9489 40944.316100 122424.735500
9490 40491.530700 123606.981400
9491 39371.557700 121206.069400
9492 39588.490300 122712.773500
9493 38114.365200 120454.920900
9494 40877.382500 121560.261100
9495 36738.281000 119120.946900
9496 39206.009000 120837.716900
9497 37674.651400 119784.060900
9498 39363.217800 122950.554800
9499 41004.607600 121438.313900
9500 37938.256500 120022.405900
9501 37478.549700 119640.431100
9502 41737.390000 120514.678900
9503 39882.105300 121672.754100
9504 37698.261200 119755.171900
9505 38892.400200 120861.325200
9506 40998.494200 121631.653000
9507 39306.003600 121161.344500
9508 39394.065700 120741.605900
9509 41061.273700 121490.261100
9510 39180.731000 120855.772600
9511 41634.872200 122191.400600
9512 41550.693700 122905.589000
9513 38896.566400 120912.716600
9514 41900.997600 120640.517000
9515 37838.260800 120232.689400
9516 41334.881900 121697.772600
9517 41782.909300 123060.318600
9518 37678.542300 118403.727400
9519 37811.036800 119947.403900
9520 41997.931700 121519.436600
9521 40773.475700 123128.365000
9522 40863.767300 121908.606900
9523 41792.613700 124072.021900
9524 39162.390400 122612.208100
9525 41312.930800 122276.954400
9526 40617.363500 123452.536200
9527 40727.653400 122079.166600
9528 40112.382100 121467.194600
9529 37812.429900 119054.311700
9530 36806.876300 118117.314300
9531 38798.790700 120820.768500
9532 38702.685700 120072.685500
9533 38774.629800 120296.859600
9534 38120.476200 120496.311500
9535 39682.114600 120984.120600
9536 41872.929800 121724.164000
9537 39358.505800 120941.614300
9538 41642.670800 120216.892600
9539 41378.215900 121562.213600
9540 40977.927200 122430.847200
9541 41642.096500 122001.950400
9542 37957.425400 119121.815600
9543 41230.450700 120504.119300
9544 41711.812100 122391.407500
9545 40894.332400 121177.470600
9546 40038.493200 121616.087400
9547 40147.662700 121244.686900
9548 41207.944100 121155.252300
9549 40452.365500 123509.756000
9550 40762.356200 123869.220500
9551 37013.838700 119569.026500
9552 37882.145400 119855.734100
9553 41265.729500 120083.829200
9554 36692.447600 119052.332100
9555 37887.428300 118959.308900
9556 37828.542800 118430.953000
9557 40841.544700 121923.607400
9558 39419.063100 120850.778100
9559 41259.875700 122275.564500
9560 41787.093900 122004.173700
9561 41573.470300 122951.701500
9562 39196.277900 122715.822900
9563 39252.671400 121103.285300
9564 39372.671300 120987.172300
9565 40675.160800 121430.810500
9566 41301.515400 123541.170400
9567 39428.785600 120834.944300
9568 41580.415300 122921.422900
9569 40467.922900 123168.637400
9570 41048.497500 121334.422600
9571 40359.593700 122894.741000
9572 40923.762900 122243.616800
9573 39219.610600 122637.487700
9574 40117.104000 121665.256700
9575 41199.327300 121688.880800
9576 39322.108900 123113.059000
9577 37037.449700 119514.023600
9578 40208.775000 121156.629100
9579 39936.836300 120947.176400
9580 38178.808200 120381.586100
9581 39216.563300 120899.386600
9582 39494.887700 121320.796600
9583 40189.603600 121693.036000
9584 41411.552200 121294.982200
9585 37377.988600 118676.786000
9586 41246.820400 122261.119300
9587 38209.362600 120464.089900
9588 41325.715100 121723.050800
9589 40344.871900 122858.073300
9590 40005.997100 121249.131600
9591 38277.416900 120310.473500
9592 39875.443500 121174.683000
9593 37710.486000 120197.965800
9594 37744.651000 120129.909200
9595 41994.859000 122623.361300
9596 41910.139400 122555.858400
9597 38647.682800 120685.764100
9598 39316.552500 122921.386500
9599 41340.984700 122348.068600
9600 38090.199200 120473.532200
9601 38981.844000 120789.098300
9602 38364.357400 122561.094200
9603 40914.045600 121908.606900
9604 39517.388900 121191.626400
9605 39411.284900 120868.001000
9606 38039.645200 120377.972000
9607 39029.342800 120861.602900
9608 40240.436700 121691.092100
9609 37367.164900 119631.815500
9610 37182.707900 118260.100900
9611 33442.809400 116865.023500
9612 32818.108100 116780.855500
9613 35729.118200 118549.531900
9614 34754.426400 118289.521200
9615 34579.990600 117969.234500
9616 33555.028000 116673.629900
9617 34210.841300 117083.370900
9618 33068.933200 116546.129200
9619 34371.665100 118932.876800
9620 33820.294600 117638.661800
9621 34378.888900 117690.057200
9622 36270.241000 121807.454500
9623 34239.729700 116946.422800
9624 34406.663600 118756.758600
9625 34488.882200 118622.865600
9626 34722.204900 118798.426200
9627 33540.861800 116743.909200
9628 36044.943900 117947.299300
9629 34689.706900 118288.688200
9630 34216.396400 117401.436500
9631 34237.229000 117415.603800
9632 34298.616900 116821.695800
9633 32644.224700 116781.409300
9634 36088.553900 117961.189400
9635 35347.459100 118871.763800
9636 35203.864100 120612.947600
9637 34126.120900 117523.662200
9638 34268.062100 116942.534200
9639 32977.825100 116777.245900
9640 34471.655800 120214.871600
9641 35728.841600 118703.699700
9642 35932.462600 121468.824600
9643 34796.090200 118852.595600
9644 34264.724700 118523.141500
9645 34621.654200 118413.970200
9646 34544.991300 118109.516700
9647 35489.694600 120647.946700
9648 34444.162900 117935.343800
9649 34437.495800 119842.083400
9650 34841.643500 118864.818900
9651 34667.763000 120114.870000
9652 34443.889000 116967.813600
9653 34187.230600 117439.215300
9654 33690.021000 117339.206500
9655 34406.663500 118933.432500
9656 32725.609800 116869.467900
9657 33385.033800 116789.188700
9658 36281.882700 118006.471800
9659 33927.793100 116817.518900
9660 33322.812800 116878.635900
9661 33851.682900 117550.604200
9662 35639.675500 118617.587900
9663 34426.108900 117572.275000
9664 33288.090800 116958.360600
9665 34741.092900 118709.534100
9666 34754.425600 119066.770900
9667 34243.341100 116828.917800
9668 36036.610700 117960.355100
9669 34831.367200 119469.844400
9670 35970.800400 121176.032200
9671 38694.072800 119833.789500
9672 38170.198400 119197.374900
9673 34067.513000 117104.201400
9674 34475.549800 119884.862500
9675 41233.784100 120467.451400
9676 37361.041000 118480.947600
9677 37547.713200 119644.601500
9678 32873.383700 116636.408600
9679 39756.573000 120083.257400
9680 39812.383600 121625.807300
9681 37244.944900 119201.232600
9682 37190.780900 119618.754200
9683 39399.605600 122950.555500
9684 41146.279000 121038.580600
9685 41234.895700 120298.279000
9686 41239.895700 120280.500700
9687 41214.891200 120931.633800
9688 41236.561100 120559.399100
9689 41239.894700 120532.453700
9690 39830.161200 121596.084400
9691 34507.492500 118452.027300
9692 41355.171400 120537.176800
9693 41263.227800 120529.120500
9694 41299.060600 120560.510600
9695 41282.116800 120508.286500
9696 41760.144000 122439.464800
9697 40802.372500 122310.285000
9698 40814.317200 122291.951000
9699 34197.785900 117332.545100
9700 40816.534300 122766.689400
9701 40846.255700 122829.747100
9702 37962.980400 120449.918300
9703 37765.206500 122241.635500
9704 41487.114600 120542.455500
9705 40448.208000 122297.781500
9706 40866.516600 124082.839600
9707 38049.365000 122158.577700
9708 37164.930700 118289.546000
9709 39412.387600 121712.751300
9710 37909.370200 122686.373300
9711 37464.938500 119886.557100
9712 37126.057800 122122.186900
9713 37931.868000 121695.786300
9714 37323.275200 121931.623300
9715 40882.381100 121660.820500
9716 38578.796600 122579.705400
9717 37287.165100 121949.956800
9718 38617.127000 121328.284300
9719 36542.727100 119833.196500
9720 36765.790400 121758.005000
9721 40306.273600 121231.909800
9722 37941.034100 121935.792500
9723 38805.462400 123017.222700
9724 38036.311900 120401.306100
9725 39927.657200 122179.155600
9726 41755.948100 124201.747400
9727 37322.997800 122032.182300
9728 37821.592900 121999.960600
9729 38544.906500 121740.516700
9730 38694.625900 120814.935500
9731 41967.369600 121918.060000
9732 41208.208900 122271.952900
9733 39646.273300 121799.976700
9734 36650.227100 119790.697700
9735 36824.399900 121740.504700
9736 38692.125800 122017.192500
9737 41456.806500 122894.755100
9738 38644.626400 121272.171800
9739 37051.337400 122073.297300
9740 40576.240600 124263.944200
9741 36858.837600 120456.007200
9742 38496.018700 121408.841600
9743 38677.959100 121176.058300
9744 38678.773000 121351.144000
9745 39020.176800 120817.989100
9746 41607.638700 122840.309900
9747 40598.186700 124157.275600
9748 38254.637300 121299.948500
9749 37005.781600 121568.275100
9750 38364.079500 122524.148700
9751 39363.777300 121693.583300
9752 38501.857500 122996.110200
9753 37463.551900 122428.586200
9754 40554.310600 123183.083900
9755 38610.465800 122869.160900
9756 38161.861400 121611.620600
9757 38977.953100 122839.437500
9758 36513.839800 119554.017500
9759 41526.509200 124038.406900
9760 37885.758200 122118.020100
9761 39042.950600 122915.829300
9762 37228.554000 120248.233600
9763 40707.368100 122807.522700
9764 38891.565000 121293.007900
9765 38021.311800 121083.831300
9766 39275.723200 121659.970100
9767 37681.874500 121768.008800
9768 38163.529700 121149.944700
9769 39311.834800 121417.741900
9770 36606.044400 118062.865400
9771 38821.288900 121193.004100
9772 37058.278600 120849.915100
9773 40021.268400 122100.266600
9774 38910.454600 122610.261400
9775 39676.293600 120241.038500
9776 39090.170900 122796.380600
9777 36961.335600 120060.717600
9778 38019.365700 122134.132100
9779 41255.711900 122139.448700
9780 41728.198500 122527.800700
9781 37542.161700 122516.089200
9782 41309.874600 122310.566600
9783 38297.136700 122285.529300
9784 37529.659300 122040.239900
9785 37313.826700 121020.761400
9786 37766.594700 120847.154500
9787 37327.999700 119649.315400
9788 37804.372200 122270.802600
9789 37997.421900 121712.453600
9790 38407.414600 122948.330700
9791 36624.394000 119313.730100
9792 39513.775200 121556.359000
9793 39435.443200 121538.024300
9794 39759.606100 121621.917700
9795 37471.600100 121129.656000
9796 38729.625200 120798.546000
9797 37662.431200 121874.678900
9798 38481.853100 120844.659000
9799 36775.790700 121669.668900
9800 40178.488600 122235.830200
9801 40120.144300 123823.363500
9802 37485.215200 122236.354800
9803 38155.750200 121691.343900
9804 38790.733900 121235.782800
9805 36677.737200 121655.501300
9806 38196.029800 120680.487200
9807 37974.645800 122561.644800
9808 37507.159100 122260.522200
9809 36606.616200 120189.044700
9810 37084.946400 121610.221600
9811 36708.006000 119555.965200
9812 37859.093800 122485.250700
9813 37051.059500 122014.684100
9814 37347.717400 120609.084000
9815 37122.999700 120260.175400
9816 39214.334300 122009.417500
9817 39792.932400 123248.068700
9818 36986.058200 120626.572200
9819 40802.071200 124163.672900
9820 36747.727200 119772.366100
9821 37668.820500 122080.796400
9822 38130.196800 121272.447300
9823 37639.097200 120996.878200
9824 38107.419900 122569.703200
9825 40499.301300 124106.436900
9826 37741.595000 121124.382800
9827 38291.859000 122458.035600
9828 37654.656000 122407.749800
9829 40416.284200 120653.006300
9830 38392.967500 120802.435700
9831 37739.651300 121425.222700
9832 37494.656800 120846.594100
9833 38008.532600 122096.075300
9834 40730.977800 122941.970800
9835 41422.649800 122386.126900
9836 39009.894700 121423.013300
9837 39154.613700 122149.418700
9838 38411.855100 121272.170900
9839 38524.906500 121970.801700
9840 38154.084900 121301.337000
9841 38678.515700 121773.297100
9842 38401.578100 122360.810500
9843 41735.418700 122634.470800
9844 34189.727500 118131.181900
9845 33835.293200 117914.503600
9846 34139.729200 118035.344900
9847 36315.783300 119708.464200
9848 34133.618600 117907.562700
9849 35373.292100 119018.712500
9850 34085.286800 117960.897800
9851 34898.593700 117022.818000
9852 33881.681900 118117.011700
9853 34073.620400 118400.356300
9854 34243.896400 116911.421500
9855 34999.420200 117649.782200
9856 33867.514300 117998.118100
9857 35400.517000 119469.561900
9858 33917.515400 116787.239900
9859 32678.947600 115498.883400
9860 33125.595700 115514.153800
9861 34216.393700 119037.602300
9862 34096.676400 117719.778500
9863 33680.300300 116173.894000
9864 36139.678000 120360.149600
9865 33895.849200 118220.071200
9866 36098.007000 119560.401500
9867 33875.293500 117566.438400
9868 34090.009100 117890.339700
9869 33940.014300 118132.568800
9870 35884.120600 119272.332800
9871 32794.773100 116962.526900
9872 34235.783000 119163.830000
9873 33668.077200 117327.261500
9874 33036.986700 117291.981800
9875 36296.061300 119142.051700
9876 33376.419600 117251.146600
9877 34399.163900 118918.154000
9878 34092.233500 117435.048000
9879 35383.292700 119109.826600
9880 34971.644000 120571.836300
9881 33831.404500 118072.842400
9882 33916.403200 118352.574800
9883 33747.520300 116971.968400
9884 33862.236700 118399.519400
9885 34426.388600 117300.878400
9886 34015.847900 117333.377200
9887 33743.075900 117109.196700
9888 36202.730800 120102.917700
9889 32847.552900 115569.439100
9890 33720.577100 116215.561900
9891 34106.952700 117935.341300
9892 36387.172500 119217.888900
9893 34134.728000 116313.066100
9894 33078.655200 116601.963700
9895 36008.286500 119961.799800
9896 36212.743900 121126.028700
9897 33931.957800 117946.173400
9898 33917.235700 118012.008600
9899 33846.404000 118046.730600
9900 34248.339600 117189.207800
9901 35618.008700 118473.141000
9902 33838.629500 117118.087300
9903 34698.040600 118136.739300
9904 33887.237000 118352.574400
9905 33938.069500 118352.575200
9906 36203.006400 119088.160000
9907 36476.061900 119443.178500
9908 33766.962300 118189.234800
9909 35058.858000 119400.950900
9910 35678.010400 119229.274800
9911 33571.692000 116077.224400
9912 34285.558000 118882.041400
9913 34046.955000 116580.847200
9914 34154.176300 117344.211800
9915 34848.059700 114614.131500
9916 33240.036600 115518.875600
9917 35042.754700 120475.998600
9918 35098.864800 120612.393000
9919 33195.869600 117379.483400
9920 35419.679900 119019.545200
9921 34063.344300 117650.887600
9922 34197.504800 119177.051600
9923 33722.244500 116374.455600
9924 33830.296100 116545.292100
9925 34579.434300 118116.461300
9926 33800.571400 118390.073700
9927 33782.519400 117228.647800
9928 33983.068800 118096.735000
9929 32821.440200 116529.184100
9930 34415.274300 118793.982400
9931 35142.753300 120641.282700
9932 35968.564900 119291.778500
9933 34147.782900 119195.107400
9934 33410.308300 117147.809600
9935 33041.711100 116868.082000
9936 33849.181600 118388.407800
9937 35622.456100 117670.896600
9938 35383.570800 119145.383400
9939 34106.675600 117806.725700
9940 34281.946100 118438.971900
9941 33783.908400 116958.635000
9942 35282.752400 120659.615600
9943 34121.397000 118106.458500
9944 33745.573100 117867.833800
9945 34019.454300 118491.191200
9946 34354.165900 119059.270500
9947 33641.689200 117290.871200
9948 33954.737000 118212.016100
9949 34062.510300 118090.346500
9950 36145.507000 119060.658700
9951 35132.187800 118448.973900
9952 33493.639100 117148.364800
9953 35962.453000 119044.268700
9954 36059.397300 119312.057700
9955 33835.849200 118340.628800
9956 36207.728800 119347.337900
9957 33747.798100 116893.355500
9958 34536.106700 117291.156500
9959 36330.228400 119292.058500
9960 34020.289400 117865.338600
9961 34068.620800 117938.952600
9962 33037.267400 115621.381700
9963 33979.179300 118032.844000
9964 33706.966000 117084.473300
9965 33882.239200 117357.265100
9966 34360.834100 117633.388400
9967 33888.625900 117813.112500
9968 34033.625000 117043.086500
9969 33931.125700 117548.661000
9970 36617.181900 121848.285500
9971 36617.737500 121916.621500
9972 35121.642400 120621.282100
9973 38311.578900 119745.731400
9974 38257.417000 120419.644500
9975 41035.995700 121516.372500
9976 38765.181400 120548.258700
9977 38073.532600 120172.410300
9978 34158.620800 116786.690000
9979 39135.456500 123635.291300
9980 38949.066400 123085.002000
9981 39440.162300 123356.121600
9982 38869.076200 123653.348400
9983 39415.169100 123770.847800
9984 39076.843400 123463.620600
9985 38890.180900 123171.949400
9986 38935.463900 123683.628200
9987 38986.008700 123058.056600
9988 38982.675200 123003.888300
9989 38912.403200 123310.841100
9990 38926.567400 123055.279000
9991 39024.065100 123315.841000
9992 38947.130600 123702.518000
9993 37961.589500 121723.286800
