NAME: usa115475
TYPE: TSP
COMMENT: 115,474 towns and cities in the United States
COMMENT: Created July 7, 2012, www.math.uwaterloo/tsp/data/usa/
DIMENSION: 115475
EDGE_WEIGHT_TYPE: EUC_2D
NODE_COORD_SECTION
1 33613.158800 86118.306100
2 33100.954000 85529.675300
3 31571.835200 85250.489300
4 32070.429900 85687.725700
5 33290.392600 87198.053000
6 33356.221700 86806.933300
7 32105.423800 86276.354700
8 32609.020600 86311.082800
9 33883.988500 86644.713500
10 32121.536600 87906.122700
11 32876.516500 87742.510500
12 34022.319400 86045.528500
13 31126.292500 85072.429400
14 31277.947300 86125.779600
15 34267.593700 86208.866900
16 33638.994100 86965.273400
17 33707.052700 87241.946200
18 32944.012000 85953.853200
19 34178.984000 85512.181800
20 33129.568100 88151.416600
21 31936.815600 87053.318000
22 30702.967500 88078.888600
23 32490.969000 87660.840700
24 32480.971400 85562.172700
25 34694.258700 88110.318200
26 33114.563000 86879.156200
27 33348.722000 86238.585900
28 33579.270400 86637.487000
29 34026.208200 86326.092300
30 33737.886000 87252.502400
31 34071.208100 85921.359000
32 32052.925600 87570.834200
33 31886.264400 86115.790600
34 31385.722800 86383.012300
35 31759.048100 85889.114900
36 34230.649600 85638.018900
37 31221.006600 87121.362200
38 34830.364300 87485.302300
39 31968.206400 88146.682200
40 31141.569300 85151.319600
41 31175.733100 85360.210800
42 34992.029200 86846.947100
43 33801.494500 87116.945900
44 33905.102700 86962.500600
45 33882.043300 86524.709500
46 32239.590700 85657.727400
47 31511.834500 85545.215600
48 34620.919800 86165.537400
49 34802.866100 86971.674100
50 31023.792100 87493.870800
51 34360.653700 87995.036600
52 32434.024900 86654.701900
53 33343.170500 85478.008500
54 31621.548000 86701.360600
55 31189.344400 85286.043700
56 33521.771700 86778.045000
57 31837.930000 86948.870800
58 30929.905200 88027.220900
59 31279.613900 86325.508500
60 33755.659900 87001.665000
61 34895.640800 87571.414500
62 34262.317900 86612.771200
63 34163.708200 86659.716900
64 31163.787200 85635.489300
65 34189.266000 86916.948300
66 31417.672200 85227.432400
67 34058.709300 85808.022900
68 33776.775000 87301.115300
69 31815.158500 85843.003400
70 32299.585200 86196.353700
71 33361.223900 85715.793100
72 31467.949400 85118.818900
73 33716.218100 87158.611500
74 30424.919400 87879.436600
75 31192.120800 85420.766800
76 34738.701000 87891.145700
77 31659.604200 88234.733800
78 31971.263100 87861.396800
79 31341.556800 86130.780800
80 31261.005100 85889.938200
81 34952.858400 85708.304100
82 30882.962800 87773.047400
83 33558.717300 86973.605700
84 30403.516000 88248.522000
85 34556.481800 86967.507900
86 33894.549600 87700.018800
87 31519.056500 85586.049300
88 31733.488800 87204.708300
89 33194.567200 88198.086000
90 33931.216200 88020.307500
91 31256.283100 86584.681200
92 32125.977300 86656.088500
93 30603.803300 87852.492300
94 33647.611000 87931.410900
95 32206.252400 87013.875900
96 34823.978600 86473.878800
97 32449.027500 88133.633900
98 30493.528600 88103.609900
99 34711.194500 85945.255600
100 31429.888200 87109.144000
101 31173.230800 85793.268100
102 32558.747000 87942.516100
103 33109.289400 87965.019000
104 33753.995500 87157.223200
105 32306.805400 86817.760800
106 34639.812200 86429.154300
107 31487.386000 87188.314100
108 33659.833200 87600.009800
109 31541.279100 85427.992200
110 31700.712300 86914.145700
111 34194.544400 86982.784000
112 34933.141900 86819.723900
113 31628.220700 85681.885500
114 32053.480600 86343.578700
115 31229.059100 86232.449300
116 32711.243900 85182.162400
117 34190.935700 88147.261200
118 31068.513500 85433.822200
119 34194.261800 85694.964800
120 34245.096200 86646.661400
121 31009.346800 85744.377200
122 33948.156700 86859.998900
123 34451.757400 86402.763800
124 34791.754900 87054.455100
125 34930.918100 87646.137700
126 31387.393700 85408.268100
127 31730.713500 88197.511100
128 31264.057900 86223.283000
129 34363.423200 85609.963400
130 32734.576700 85133.827700
131 33630.660700 86946.661800
132 33931.211500 86794.163600
133 34081.486300 86591.102700
134 33946.765400 86585.823500
135 34126.485600 86542.767800
136 31984.877000 85716.891700
137 33820.662300 87906.412800
138 32594.024500 88115.578000
139 34200.650300 86166.365500
140 33877.327400 87822.522500
141 33853.995000 87182.781800
142 33643.167500 87510.006100
143 32755.965400 88028.907200
144 31778.489900 88331.129000
145 31725.433400 86705.807800
146 33263.724600 86335.532300
147 33542.606800 87007.217300
148 32500.412400 86571.922300
149 32306.534200 85441.611900
150 32619.579700 88304.197000
151 33752.045400 86703.879900
152 31901.818400 86242.184700
153 32050.423600 86795.536300
154 32429.025000 86946.654600
155 31496.552600 87119.145800
156 32399.582800 86040.238700
157 32399.026900 86184.687900
158 33994.546500 86970.002700
159 32516.526100 88091.965900
160 31959.040300 86129.958900
161 34094.540600 85971.915800
162 34670.368300 87244.185400
163 34025.379700 87758.357400
164 31262.670800 86771.074900
165 31312.946100 86171.059600
166 34225.929500 86615.271100
167 31481.830600 86684.967700
168 33637.882500 86916.661200
169 34162.040400 86475.543100
170 34500.926700 86855.003300
171 33255.671900 87320.833600
172 34360.645300 85521.627600
173 34932.864800 86713.609400
174 31427.672100 85200.765200
175 34749.256800 86443.044000
176 32602.079300 87931.126700
177 34602.862600 85830.528400
178 31468.497900 86900.528200
179 33392.615500 87753.346200
180 31668.490900 86670.527800
181 34028.713300 87007.504300
182 33699.550000 87047.776000
183 34943.690400 85632.190000
184 32520.968900 85863.569200
185 32946.236100 85401.892900
186 33257.062300 87752.790200
187 33416.501100 87258.332300
188 31217.954500 88390.570000
189 33344.836400 87298.610900
190 34518.704600 86938.617900
191 33979.542600 85951.637000
192 31553.494900 87160.259200
193 34450.930300 88022.816400
194 34569.259600 87140.014800
195 32316.805600 87101.379300
196 33354.833000 86826.100400
197 34870.641800 87144.458300
198 33426.496700 86431.647300
199 31890.428300 87087.485000
200 32050.146700 86544.973900
201 32225.422700 87793.065800
202 31155.174800 88009.999700
203 31990.981300 87290.545600
204 33795.941100 87271.670900
205 32800.405900 85653.565900
206 31923.486800 87981.120700
207 32892.624800 86846.654600
208 33836.493300 87055.278900
209 32204.865200 86303.578400
210 31026.292000 87411.923700
211 32323.472600 86455.806200
212 31497.114100 85311.878700
213 34773.145600 86792.778100
214 33645.660400 86933.606100
215 34128.984500 86120.253100
216 32087.088900 87034.152600
217 31343.224000 87845.552200
218 34809.249800 85974.146200
219 31541.551900 88236.399900
220 32549.856900 85869.958500
221 31472.386900 87941.389000
222 34947.864600 86695.831100
223 34872.308500 87064.732900
224 32580.411700 87683.897400
225 31299.059900 87022.472100
226 31879.601200 85833.004100
227 32184.587500 87469.443000
228 32302.641600 86008.569400
229 31351.834300 86328.843200
230 34856.753000 87214.738900
231 34705.645800 87753.086900
232 33863.988700 86654.435700
233 33851.497200 87446.675900
234 31778.765800 86367.465500
235 34038.155300 86810.832300
236 34321.206600 86723.053300
237 34089.542700 86724.718900
238 34955.639200 87448.355800
239 31788.490200 88030.007800
240 31815.987000 86412.467600
241 34276.209400 86929.449700
242 32682.352100 86097.465900
243 34666.194600 85790.528200
244 33653.158000 86647.765900
245 34565.093000 87226.684900
246 31748.764900 87531.937800
247 31181.563400 85877.159200
248 31693.493000 88440.300600
249 32239.864700 88188.634100
250 33817.329000 87210.281400
251 31037.679400 88023.332400
252 31465.165300 88254.455700
253 32480.137600 85718.843100
254 33340.110800 86630.262500
255 34757.034200 87972.814300
256 32682.075000 85906.349400
257 31729.600600 86336.907800
258 32293.753600 85924.400600
259 31807.653200 87232.209400
260 31597.107400 85913.556600
261 33678.993700 86968.051900
262 30763.799100 88074.722200
263 31782.100300 87844.169500
264 32209.033000 88094.185700
265 30921.850500 88200.559800
266 32156.538300 85643.559200
267 31090.733800 88228.062200
268 31540.161100 87515.546400
269 34083.707800 86428.318600
270 34807.311600 86772.777400
271 33914.550800 87576.681700
272 32579.021900 86070.519800
273 30485.750800 87806.656900
274 31235.729300 85722.711800
275 31878.216200 85449.662700
276 34777.310500 87673.084600
277 32913.738700 87992.518000
278 31407.112500 85894.107800
279 31608.500200 85429.937400
280 34938.696400 87771.417700
281 33978.153300 86015.805200
282 33740.109900 87418.061100
283 33593.715800 86857.214600
284 33159.007800 87340.834000
285 33254.836600 86883.045500
286 32485.137900 88069.464900
287 33642.881400 85867.465900
288 33065.403700 88251.143100
289 30382.977100 88238.336300
290 31164.619300 85909.382100
291 31757.935300 88089.730800
292 32282.647600 85236.605600
293 34660.924400 87694.474600
294 33981.769700 87033.337300
295 31434.888100 86423.292500
296 32175.975400 86823.593200
297 33879.266000 85919.135600
298 32032.933800 85383.273200
299 33467.608500 87031.105800
300 32411.526600 86146.631300
301 33831.215200 87028.333800
302 33279.279600 86345.532700
303 33327.611300 86359.144600
304 32647.908500 86369.695700
305 31560.163200 88419.187200
306 34283.148800 86187.477700
307 31831.545300 85949.673000
308 33759.829100 87183.334900
309 33168.452200 85557.454300
310 33800.381000 86942.220100
311 32155.981100 85842.174700
312 33708.444200 87469.450400
313 32855.680600 86122.468200
314 32292.922000 85692.173300
315 32146.819800 85073.820600
316 31048.793300 85304.932600
317 34755.089500 86955.284700
318 30683.801300 88149.168500
319 30694.356600 88164.724600
320 33821.489400 86718.603800
321 34299.262400 86698.052300
322 34668.979400 87309.464900
323 33690.109700 87889.187700
324 33035.398900 85822.739100
325 34802.032000 87178.348900
326 32087.926500 87910.289000
327 32456.808100 85189.661100
328 32817.908300 88054.186800
329 32294.589900 85477.446100
330 33813.159400 86994.443800
331 33913.161800 88080.587100
332 30706.300700 88106.111700
333 33728.434800 86731.658200
334 34102.040300 86009.972400
335 32428.195200 88376.421100
336 34174.820800 86843.612400
337 31713.769500 88296.959400
338 33174.011300 88107.526100
339 32018.483700 86080.791000
340 31397.666400 86156.893700
341 32831.238000 85763.569200
342 31310.171900 85712.990800
343 33849.544400 86660.546900
344 31320.447100 86004.387000
345 31920.706400 86406.357400
346 33052.899200 85639.678300
347 32327.643200 85669.673200
348 30607.692600 88255.282800
349 32350.973200 87641.950300
350 34605.925400 86983.341700
351 30400.754200 88148.889300
352 34170.100500 87605.855900
353 32517.636100 87836.402000
354 34484.262800 87949.759500
355 34028.160800 88170.036800
356 34326.201800 85507.738100
357 32639.297700 86149.689400
358 33131.786900 85473.007200
359 31763.488400 87710.554400
360 31511.000800 85653.549700
361 33802.326900 87053.611400
362 30452.141700 88241.948000
363 31000.459500 87036.077400
364 33223.727500 87165.552100
365 33948.161400 87566.682400
366 33151.228600 86873.045000
367 33711.772900 87101.110500
368 33462.885800 86961.382000
369 31647.664800 85673.830200
370 32438.469600 86449.696100
371 31223.231300 85390.488900
372 34326.203000 86161.366700
373 34232.316300 86123.586800
374 34173.706500 86323.592600
375 32491.527400 88391.422100
376 32264.866800 85784.119400
377 31492.108400 86364.958200
378 33782.882100 87018.610300
379 32915.125200 85599.954100
380 34713.424100 86487.766900
381 31120.455000 85671.600200
382 31845.156900 85896.060700
383 34610.918300 85916.920000
384 31276.279700 86241.894900
385 34249.264300 86820.556900
386 32828.184900 85174.940700
387 31128.508400 86129.388000
388 31093.233900 87062.746900
389 31665.713200 86696.639400
390 34809.531900 87649.472500
391 34002.597900 85968.582000
392 34183.153600 86793.610900
393 33940.931400 86457.207800
394 31475.724500 85465.769800
395 33344.838800 87789.458600
396 32635.409300 86034.407900
397 31716.831900 85372.159500
398 32318.194000 86775.259800
399 31665.443900 85375.214700
400 34073.707500 86155.809300
401 30763.521300 88126.946000
402 31667.664600 85656.330400
403 31414.610800 86067.724300
404 30414.364600 87597.761500
405 33922.883500 87617.238900
406 34928.974300 86973.895900
407 34977.586000 86723.609900
408 34064.820600 85609.961900
409 32152.920700 87071.931900
410 32538.744800 86314.971200
411 33256.229300 87792.236200
412 33808.437300 87010.555200
413 31215.732500 85276.876900
414 32155.428400 85496.611600
415 32734.850900 86618.036400
416 32690.411400 88126.133900
417 32762.072100 86101.911200
418 31289.618200 88387.237300
419 31969.315000 87202.487500
420 33415.674300 88216.699200
421 31891.271700 85145.487600
422 33645.658700 85912.467100
423 31039.901300 85847.435000
424 32840.684800 87887.514500
425 34332.317800 86758.888000
426 31433.499400 86956.917600
427 33990.654300 85905.802600
428 32056.538600 87874.176500
429 34792.582700 85909.977500
430 31044.624400 85537.433400
431 34626.750900 85790.249700
432 32796.241300 85183.829700
433 31251.838400 86645.516000
434 31168.230100 88064.168500
435 34803.144500 86876.948100
436 31563.772600 87076.646200
437 31419.333400 87005.251900
438 33378.727800 87885.573500
439 34581.481400 86972.508000
440 34803.144700 86832.502000
441 34255.374100 86688.051900
442 32804.849000 86594.147300
443 31049.067800 86618.288100
444 32695.407500 86050.242400
445 34368.429500 86908.616000
446 34246.204300 85493.292700
447 32078.200400 86891.927200
448 32459.858500 87593.893800
449 33145.672500 86405.811200
450 32480.690900 86409.973200
451 33579.281200 88141.696400
452 30483.252300 88293.061600
453 33642.048400 86855.826400
454 34642.591300 87140.570200
455 34784.254400 87393.911400
456 32489.579500 86351.638500
457 31032.125900 85411.044200
458 31440.720800 86303.288300
459 32248.752000 87235.548300
460 33018.178800 85350.225100
461 34019.820000 86550.545300
462 34918.143100 86681.386100
463 31301.839100 85625.212800
464 33644.273500 87092.498200
465 34536.760200 87485.302800
466 34769.803200 85694.415200
467 32450.414100 86261.079900
468 32149.311100 87523.055700
469 33945.106700 87503.346700
470 31978.760300 86430.803200
471 34661.480100 86582.770100
472 32109.590000 86352.190400
473 33355.111700 87006.382300
474 34873.690100 85590.244300
475 34799.810000 87677.251000
476 32600.132500 86017.184900
477 30406.586800 87683.597400
478 34785.920900 87528.637000
479 31862.373500 86842.757500
480 32437.080500 86598.033700
481 33161.230300 85538.842600
482 32648.189300 87883.347500
483 34086.208800 85461.902100
484 32243.201400 85709.673000
485 31984.592900 86578.585600
486 32341.536000 85021.598300
487 32997.899900 85826.905600
488 33422.612300 85555.233300
489 32086.533600 86829.981600
490 31594.603800 87408.877600
491 33529.272000 86826.379600
492 31301.283900 88364.458800
493 30462.418900 88168.890000
494 34033.986800 86587.213400
495 33801.218700 87663.348300
496 33613.159800 86836.658900
497 34563.427200 87842.256800
498 31714.599600 87411.379100
499 32989.846200 85288.556400
500 34059.819100 86433.874400
501 31403.499300 86206.617800
502 32537.078900 85974.683100
503 31342.671900 88407.794600
504 33730.938200 85433.844200
505 31817.931500 86311.075000
506 34296.202800 85493.293000
507 31788.488100 87727.222100
508 34088.435600 88012.254600
509 33618.437100 86801.658200
510 32006.813200 86966.928000
511 33998.708400 86245.256000
512 31083.232600 86106.886400
513 31406.833900 86484.127300
514 33148.450000 86289.419200
515 32911.235100 86607.481700
516 34014.543600 86746.941400
517 33660.103300 86812.770200
518 31556.550300 86823.306300
519 31876.263300 86272.741100
520 32207.364600 87437.497900
521 34268.426000 85556.905700
522 32868.185700 88305.032100
523 31032.957200 85863.824200
524 30888.518200 88270.284600
525 31296.559100 87735.549000
526 34453.428000 86928.061700
527 31637.102800 86741.917500
528 31877.097500 88321.408900
529 33516.497600 87146.664000
530 32631.244500 87779.455900
531 34893.696900 87082.511300
532 34872.588600 86643.051200
533 32785.130500 85173.829300
534 33204.282800 86958.324800
535 33957.043000 85932.469800
536 32128.764600 85176.879300
537 31664.603200 86171.344400
538 33750.940800 87218.057600
539 32721.797500 85507.728300
540 34259.818900 86753.332200
541 32563.745800 85781.067500
542 33643.715500 85785.797100
543 32573.466600 86013.295600
544 34115.932800 86863.612400
545 31279.614900 85993.552600
546 31336.835500 87425.818600
547 33320.117800 87902.796200
548 33649.275000 87208.055900
549 31722.935200 86118.288200
550 31582.659700 87583.603900
551 31994.872000 86201.073300
552 33457.612500 85320.782700
553 31007.962100 85211.598500
554 34528.698500 86253.316300
555 34354.259700 86436.653300
556 33926.209500 86508.320500
557 33620.661100 86971.384400
558 31577.105300 87130.814500
559 34670.924500 86843.613600
560 31829.597200 86617.751700
561 31779.599700 87760.000600
562 33325.945600 86936.102700
563 34703.424400 86550.546800
564 33960.937000 87880.581700
565 30246.036100 87700.819300
566 34701.755800 86375.820100
567 34115.656800 87010.839100
568 34277.320000 87828.642300
569 33060.397800 85933.020200
570 31074.899400 86166.332500
571 31406.562000 85137.152600
572 34226.488000 87621.413300
573 31402.388600 87331.372300
574 34453.152800 88061.428500
575 32284.030400 88277.249200
576 32527.911400 87286.386100
577 34142.323500 87988.643800
578 31643.774500 85808.277000
579 32743.466000 88269.196000
580 34060.654500 86767.498000
581 34534.808800 85993.588100
582 34787.866500 86954.729000
583 32239.313900 85526.057800
584 31181.562800 88051.668100
585 32286.532200 85848.843300
586 33231.226700 85867.185900
587 31357.390100 86374.955900
588 31594.049200 87134.703800
589 33343.999500 86438.035700
590 32443.191300 87215.550200
591 34855.644100 86750.832300
592 32270.703400 85275.773300
593 34562.870700 87415.301100
594 33892.600300 86757.773000
595 33577.882500 86831.102700
596 32625.687000 86673.037300
597 34882.304200 85815.808100
598 32184.031500 86580.253300
599 34880.086500 86969.729300
600 32340.138400 87203.882000
601 31351.284000 85342.155900
602 31632.383000 88336.683300
603 31360.724300 86469.681100
604 33167.339800 87067.216300
605 34485.367500 86380.263400
606 31913.485000 86211.905900
607 31666.548200 86073.285200
608 34038.152800 86453.319400
609 34424.534000 86262.204000
610 33447.052200 86231.642100
611 30354.644400 88130.277700
612 34543.149500 87708.920200
613 32239.306900 86748.591700
614 31156.564800 85731.322500
615 34242.316700 86278.590900
616 33959.543700 86690.549700
617 32793.182800 86673.316000
618 32259.587900 87900.291400
619 34639.258000 87191.683400
620 33868.440300 87266.395000
621 32892.346100 86153.302800
622 31572.937900 87426.099900
623 32194.032500 86244.687600
624 34537.035800 86534.712200
625 31911.826700 85148.821100
626 32025.983900 87876.953800
627 34327.042500 87926.423300
628 31082.680300 85372.988600
629 31937.373200 88302.242800
630 34332.316500 86560.269000
631 34890.363000 87538.636200
632 33838.719500 87422.508400
633 33824.543600 86478.318500
634 34724.250000 85972.478700
635 32636.242100 86326.639000
636 32222.373300 85005.207700
637 33988.430900 86420.262400
638 32269.863200 86357.191600
639 34201.206100 85729.410200
640 34200.928300 86296.924800
641 34827.308800 87435.023200
642 34055.929900 86183.587800
643 33259.005300 87340.278600
644 33827.883900 87740.018600
645 32834.573200 85229.664700
646 34312.317000 86598.603800
647 33774.271700 87058.888600
648 34704.535500 86618.882600
649 34311.759000 86167.477700
650 34234.261500 86343.038000
651 32523.189500 86701.370700
652 33297.612300 86352.755300
653 31604.326700 86612.746900
654 31271.281000 86094.667200
655 30506.862300 88233.892500
656 31782.379300 88455.580500
657 34034.541300 86145.253400
658 30670.468400 88158.057600
659 30622.691700 87911.938400
660 32644.855700 87851.680100
661 34890.919100 87663.638500
662 32886.236400 85811.626500
663 34397.866600 85577.462700
664 33831.218500 87277.505300
665 32386.806700 87898.069900
666 33130.677200 87846.959400
667 32126.264800 85072.153600
668 34297.872600 86556.102200
669 31786.544200 86164.124500
670 31504.886200 88247.233400
671 32705.407400 86002.185400
672 30326.589400 87531.092300
673 34033.431400 86616.659000
674 32835.960700 85586.064300
675 33901.773700 87551.958200
676 31060.735100 87127.470500
677 34156.206300 85951.082300
678 32979.844100 86033.578000
679 33587.057400 87984.467500
680 32619.021200 85948.572100
681 34102.597200 85534.404200
682 32937.067200 86109.135300
683 33945.098800 85918.024900
684 31282.671800 85825.492400
685 33679.549900 87030.553200
686 34862.863700 87537.525300
687 34826.754300 87763.363500
688 34905.362700 87383.076800
689 31299.063000 85344.377800
690 31402.671100 85414.379400
691 34190.372700 85456.902600
692 31640.160300 88259.456900
693 30815.464300 88158.058300
694 32378.473500 85862.733900
695 33372.888500 86920.824900
696 32468.197700 85079.101600
697 34872.307900 87559.470100
698 34811.476300 87618.638600
699 34789.532300 87616.694400
700 32121.256900 87566.668100
701 32028.759300 88328.357700
702 34318.148000 86240.257300
703 34690.918900 86124.703800
704 32016.539900 87958.344400
705 33370.950900 87992.244200
706 34272.871600 86284.147000
707 30497.973300 88170.001300
708 34232.315900 85531.071500
709 31657.666500 85269.101300
710 34725.089600 87072.789500
711 34389.818000 86911.671900
712 31336.557700 87185.533100
713 34990.639100 87153.346900
714 34752.030000 86162.205100
715 32129.589000 86485.805800
716 31409.892600 85467.435800
717 33582.604400 86805.546600
718 33040.957800 88020.298300
719 34969.250100 87371.131600
720 32581.245500 85749.122500
721 33563.992900 86654.709400
722 34347.596600 87765.030800
723 32711.795700 86389.141200
724 30412.975900 87436.922800
725 31758.220000 85469.384400
726 33833.434600 86801.384100
727 32168.755400 88282.525100
728 31257.116200 87708.603500
729 34281.481500 85673.297900
730 32846.795300 85209.942000
731 33500.943300 87248.610000
732 32150.422900 88177.798500
733 34067.040900 86133.031000
734 33688.716100 86998.052800
735 32787.631200 88028.907500
736 32604.300800 85593.285400
737 31329.613500 86648.851500
738 32583.189700 87736.676900
739 33907.599200 86615.268500
740 31985.982100 86490.527500
741 33572.881500 86601.097100
742 32879.013800 86660.816200
743 31297.670700 87087.751700
744 34544.537600 86996.398000
745 34250.653900 86886.114700
746 34322.869100 85642.741800
747 31581.551000 88300.014300
748 31783.496300 85555.775100
749 31116.013600 85273.821400
750 33324.556900 86982.214800
751 31840.707700 87545.273700
752 31167.395600 86142.722600
753 33308.724700 87075.272400
754 33767.877700 85936.357500
755 33088.453300 87147.496000
756 31965.714500 85214.934300
757 31716.545500 86263.849200
758 31542.662300 86986.087700
759 33619.825300 86706.655900
760 34430.649200 86705.274800
761 31468.224300 85562.992900
762 32040.428000 86031.622700
763 34520.086800 86000.254800
764 34171.762300 85789.967200
765 31035.737200 85393.266300
766 30515.749900 87917.493100
767 31932.650800 86294.131500
768 30399.642400 87776.100100
769 31024.903200 87454.702900
770 32186.534100 86040.513500
771 34862.308900 87728.640000
772 32057.094000 87814.175100
773 33880.098400 86009.971100
774 31492.945600 85695.771800
775 30461.029300 87799.156600
776 34743.693800 85920.533100
777 34367.313000 86167.478600
778 32439.029600 85364.111100
779 34538.704700 87283.353300
780 30836.852700 88184.447900
781 33577.885900 87148.887100
782 33203.449200 86861.656000
783 31542.384000 86714.970000
784 31844.600300 85961.062300
785 33817.885800 87325.283700
786 31166.842200 87526.374700
787 32298.473700 87540.279700
788 34176.762300 86401.929000
789 32154.875000 85094.376800
790 33380.952000 88141.695500
791 31606.827400 87895.556500
792 34286.204000 86127.754200
793 31830.985800 87093.873700
794 34363.704500 86510.266900
795 33669.550300 87045.831000
796 31917.931500 86005.509000
797 31379.889400 87428.319400
798 33136.513600 88297.534100
799 34785.923700 86536.102300
800 34851.478200 86572.215400
801 31493.774200 87374.430800
802 31507.107000 87388.320300
803 33496.777100 85541.066600
804 31813.487100 86463.580500
805 32077.097700 85522.166700
806 30370.477000 87610.817200
807 32099.589700 87367.494400
808 33563.447800 88081.415900
809 31634.049600 88313.348700
810 32527.081800 88335.864400
811 33048.731500 86759.430700
812 32951.789700 86645.260700
813 33537.328400 86940.549100
814 32077.922400 86993.596100
815 32241.531200 88271.693000
816 34036.485900 86004.416300
817 32512.084800 85090.769000
818 31825.436900 85778.557400
819 31734.878200 86394.688000
820 32550.969800 88106.966500
821 32825.128200 85444.115800
822 34628.425000 86880.281900
823 33333.723000 86916.657900
824 34472.036500 86569.713600
825 33957.320100 86039.416800
826 32933.733800 86345.808300
827 33748.157600 86808.604800
828 33869.829500 88102.809300
829 34118.708000 85622.184600
830 34597.314500 87014.454100
831 31971.268200 85524.665400
832 32060.980300 86365.246100
833 34142.317900 86289.424400
834 33769.274400 87241.114000
835 32362.639300 86101.906800
836 32399.304900 86106.907500
837 32289.861600 87052.488900
838 31578.494000 86848.029800
839 33670.936900 86856.104700
840 34935.084700 87140.291200
841 32093.758000 88163.074500
842 34254.819300 86784.722200
843 32060.145800 86701.367300
844 34088.708700 86617.214800
845 34541.482700 87653.640800
846 34147.039700 86130.531200
847 31064.622800 88025.555000
848 32670.963600 86717.483200
849 34698.701600 86956.951500
850 32250.421400 87949.737100
851 32112.925700 87988.069100
852 31315.450600 85454.101300
853 34596.203200 87428.356900
854 33959.821100 86639.436700
855 31987.927200 88336.690600
856 30732.133300 88100.278400
857 34388.703300 86424.708500
858 32811.796100 85244.665000
859 32579.855400 85984.128300
860 32469.302700 86161.910300
861 31552.942600 85867.721100
862 33359.276900 86737.209500
863 33980.658700 87818.358000
864 34205.096500 86641.105300
865 32839.850700 87736.399200
866 31335.171600 85605.213300
867 33545.390600 87801.404700
868 32008.206800 87901.954100
869 34757.310600 87559.749000
870 34351.485600 87784.198000
871 34347.319100 87806.976200
872 34203.984200 86384.706200
873 32556.522100 86319.138200
874 34279.264100 86855.558200
875 34131.486400 86681.939700
876 33533.993900 86799.156800
877 30317.978400 87706.375400
878 32546.245700 87677.508200
879 33191.782200 86299.419700
880 33454.832400 87153.608100
881 34918.697500 86855.836300
882 34478.150200 86995.009100
883 32897.627200 87764.733300
884 33715.105800 87076.110100
885 34820.921500 86911.949400
886 34827.587300 87085.289600
887 33031.509900 86763.597400
888 34165.095500 85486.903200
889 34373.983800 86762.221500
890 33783.432400 86002.470300
891 34410.931000 88036.705100
892 33938.709100 86061.917300
893 31872.375400 88306.130200
894 32239.029200 86872.761600
895 34413.981700 86528.045400
896 34810.920600 87250.296200
897 31975.987800 85784.948700
898 30294.368100 87573.593500
899 31299.892500 87548.599700
900 33484.004600 87977.799500
901 30247.703100 87839.713100
902 31971.538400 86388.857300
903 32950.683900 88268.920600
904 31154.068700 85175.486700
905 30643.246800 87912.216400
906 32482.635100 86505.809200
907 31786.543600 86228.293600
908 33306.503500 87222.498000
909 33628.714200 86745.823600
910 32613.468900 88346.698600
911 31116.010700 87097.748400
912 34063.990700 87866.972300
913 33733.443400 87570.009600
914 31258.787200 85226.043000
915 33285.668700 86809.988500
916 32207.088800 88056.128700
917 30873.240400 88047.499300
918 33006.512100 85465.506400
919 30340.755800 87504.980500
920 33021.232700 85801.349500
921 31848.764500 86207.738200
922 34971.751300 86946.117100
923 34806.198400 87555.304000
924 34133.154400 86817.222300
925 34350.929900 87706.418000
926 31161.013400 85107.429900
927 33347.611500 86929.991600
928 32357.640800 87871.680000
929 30833.519800 87741.101800
930 34033.154900 85707.742400
931 32716.243300 85251.886900
932 34857.030500 87360.021000
933 31475.720000 86186.340400
934 32583.743600 86465.531100
935 34865.363500 87469.190500
936 31057.401200 88111.668900
937 33537.604500 86681.654100
938 34855.087300 86933.616900
939 32755.962600 85655.232400
940 32175.699300 86367.469100
941 34680.916800 85847.752300
942 31367.393100 85612.991600
943 34114.263900 85727.465400
944 34268.983000 86338.593500
945 31063.235100 87491.093700
946 31744.886700 85233.545300
947 31304.341600 85229.654300
948 31664.603900 86054.395600
949 34505.650300 87688.919800
950 34542.039800 88065.317800
951 34234.819300 86765.554800
952 32702.907400 86784.985400
953 34961.754500 86416.656900
954 31027.125200 87173.582500
955 32710.408100 85774.124100
956 32748.739500 86719.428200
957 34731.478200 87141.681200
958 34795.643500 87124.735700
959 34414.533900 86136.923100
960 33566.496600 87106.664000
961 33623.162100 87054.719400
962 32431.247200 87108.047500
963 33908.437800 87099.448100
964 33613.718400 87112.498100
965 32464.024500 86459.696600
966 31452.943200 87966.111700
967 33722.053600 87333.892600
968 34021.213200 87784.746900
969 32193.477500 88353.362300
970 33672.050500 87066.664800
971 34279.815700 86258.312700
972 31026.847400 87724.990800
973 34752.590700 86736.386900
974 34785.643300 87314.187000
975 31312.669400 87235.534100
976 34767.310300 87370.021900
977 34255.928100 86424.152500
978 34697.868600 87863.923100
979 31137.954300 87632.488800
980 34496.761700 87741.699200
981 33378.451000 88015.300800
982 31122.956100 85452.711300
983 34749.255900 87038.621400
984 31246.004800 88098.892800
985 33816.766600 86600.822200
986 31409.055100 87239.147300
987 31262.669600 86161.891800
988 31732.940400 85727.721600
989 32128.756700 88327.804200
990 31726.266900 87126.095500
991 34333.979500 85547.739200
992 34762.033100 87120.846800
993 34039.265400 86713.607000
994 31352.946800 86539.127300
995 34094.820000 86667.772400
996 32244.035500 85594.115000
997 34765.366000 87286.686400
998 31081.845100 86888.852200
999 30553.804800 87711.932400
1000 32214.032600 88127.242500
